# --------------------------------------------------
# nrow : 3000
# ncol : 5
# comment : Data to test the Cramer-Von Mises test
# time_generated : 2017-02-03 21:03:13
# author : magpie
# source_file : /home/magpie/Documents/ideas/von_mises_test/cramer_vonmises_tables_check.py
# work_dir : /home/magpie/Documents/ideas/von_mises_test
# python_environment : posix
# python_version : 2.7.12 |Continuum Analytics, Inc.| (default, Jul  2 2016, 17:42:40)  [GCC 4.4.7 20120313 (Red Hat 4.4.7-1)]
# pandas_version : 0.17.1
# numpy_version : 1.10.4
# python_inc : /home/magpie/.conda/envs/jl_test_env/include/python2.7
# python_lib : /home/magpie/.conda/envs/jl_test_env/lib/python2.7/site-packages
# --------------------------------------------------
nval,pvalue1,pvalue2,stat1,stat2
4,0.982,0.979,0.033,0.033
4,0.588,0.583,0.104,0.104
4,0.774,0.768,0.071,0.071
4,0.210,0.209,0.236,0.236
4,0.829,0.823,0.062,0.062
4,0.395,0.392,0.152,0.152
4,0.764,0.758,0.073,0.073
4,0.200,0.199,0.243,0.243
4,0.096,0.096,0.349,0.349
4,0.448,0.445,0.137,0.137
4,0.535,0.531,0.115,0.115
4,0.694,0.689,0.084,0.084
4,0.102,0.102,0.340,0.340
4,0.735,0.729,0.077,0.077
4,0.288,0.287,0.193,0.193
4,0.870,0.864,0.056,0.056
4,0.761,0.755,0.073,0.073
4,0.174,0.174,0.262,0.262
4,0.731,0.726,0.078,0.078
4,0.276,0.275,0.198,0.198
4,0.463,0.460,0.133,0.133
4,0.180,0.180,0.257,0.257
4,0.367,0.365,0.161,0.161
4,0.016,0.017,0.611,0.611
4,0.051,0.052,0.441,0.441
4,0.261,0.260,0.206,0.206
4,0.816,0.811,0.064,0.064
4,0.377,0.375,0.158,0.158
4,0.558,0.554,0.110,0.110
4,0.491,0.488,0.125,0.125
4,0.767,0.761,0.072,0.072
4,0.613,0.609,0.099,0.099
4,0.512,0.508,0.120,0.120
4,0.249,0.248,0.212,0.212
4,0.783,0.777,0.070,0.070
4,0.272,0.270,0.201,0.201
4,0.078,0.079,0.378,0.378
4,0.466,0.463,0.132,0.132
4,0.663,0.658,0.090,0.090
4,0.917,0.911,0.048,0.048
4,0.980,0.976,0.034,0.034
4,0.483,0.480,0.128,0.128
4,0.467,0.464,0.132,0.132
4,0.461,0.457,0.133,0.133
4,0.857,0.852,0.058,0.058
4,0.926,0.921,0.046,0.046
4,0.429,0.426,0.142,0.142
4,0.260,0.259,0.207,0.207
4,0.131,0.132,0.302,0.302
4,0.909,0.904,0.049,0.049
4,0.153,0.153,0.280,0.280
4,0.127,0.127,0.307,0.307
4,0.487,0.484,0.126,0.126
4,0.141,0.141,0.292,0.292
4,0.370,0.368,0.161,0.161
4,0.318,0.316,0.180,0.180
4,0.377,0.374,0.158,0.158
4,0.457,0.454,0.134,0.134
4,0.020,0.021,0.581,0.581
4,0.030,0.031,0.520,0.520
4,0.108,0.108,0.331,0.331
4,0.678,0.673,0.087,0.087
4,0.646,0.641,0.093,0.093
4,0.153,0.153,0.281,0.281
4,0.780,0.774,0.070,0.070
4,0.287,0.286,0.193,0.193
4,0.444,0.441,0.138,0.138
4,0.850,0.844,0.059,0.059
4,0.404,0.402,0.149,0.149
4,0.715,0.710,0.081,0.081
4,0.498,0.494,0.124,0.124
4,0.474,0.471,0.130,0.130
4,0.788,0.782,0.069,0.069
4,0.049,0.050,0.449,0.449
4,0.843,0.838,0.060,0.060
4,0.028,0.029,0.529,0.529
4,0.029,0.030,0.528,0.528
4,0.201,0.201,0.242,0.242
4,0.297,0.295,0.189,0.189
4,0.884,0.879,0.053,0.053
4,0.397,0.394,0.152,0.152
4,0.601,0.596,0.101,0.101
4,0.803,0.797,0.066,0.066
4,0.130,0.131,0.303,0.303
4,0.407,0.405,0.148,0.148
4,0.769,0.763,0.072,0.072
4,0.854,0.849,0.058,0.058
4,0.633,0.628,0.095,0.095
4,0.463,0.460,0.133,0.133
4,0.599,0.595,0.102,0.102
4,0.092,0.093,0.354,0.354
4,0.297,0.295,0.189,0.189
4,0.950,0.945,0.041,0.041
4,0.778,0.772,0.070,0.070
4,0.007,0.008,0.720,0.720
4,0.312,0.311,0.182,0.182
4,0.987,0.984,0.031,0.031
4,0.405,0.403,0.149,0.149
4,0.327,0.325,0.176,0.176
4,0.136,0.136,0.297,0.297
4,0.770,0.764,0.072,0.072
4,0.099,0.100,0.343,0.343
4,0.616,0.611,0.098,0.098
4,0.395,0.392,0.152,0.152
4,0.380,0.377,0.157,0.157
4,0.770,0.764,0.072,0.072
4,0.612,0.608,0.099,0.099
4,0.259,0.259,0.207,0.207
4,0.493,0.490,0.125,0.125
4,0.016,0.017,0.610,0.610
4,0.778,0.773,0.070,0.070
4,0.615,0.610,0.099,0.099
4,0.772,0.766,0.071,0.071
4,0.391,0.389,0.154,0.154
4,0.452,0.449,0.135,0.135
4,0.583,0.579,0.105,0.105
4,0.156,0.156,0.278,0.278
4,0.324,0.322,0.178,0.178
4,0.395,0.392,0.152,0.152
4,0.132,0.132,0.302,0.302
4,0.159,0.159,0.275,0.275
4,0.349,0.347,0.168,0.168
4,0.044,0.045,0.464,0.464
4,0.317,0.316,0.180,0.180
4,0.652,0.647,0.092,0.092
4,0.496,0.493,0.124,0.124
4,0.290,0.289,0.192,0.192
4,0.732,0.727,0.078,0.078
4,0.241,0.240,0.217,0.217
4,0.452,0.449,0.136,0.136
4,0.333,0.331,0.174,0.174
4,0.371,0.369,0.160,0.160
4,0.461,0.458,0.133,0.133
4,0.778,0.772,0.070,0.070
4,0.792,0.786,0.068,0.068
4,0.569,0.565,0.108,0.108
4,0.394,0.391,0.153,0.153
4,0.574,0.570,0.107,0.107
4,0.046,0.047,0.457,0.457
4,0.143,0.143,0.290,0.290
4,0.079,0.080,0.377,0.377
4,0.270,0.269,0.201,0.201
4,0.372,0.369,0.160,0.160
4,0.343,0.341,0.170,0.170
4,0.449,0.446,0.137,0.137
4,0.193,0.192,0.248,0.248
4,0.445,0.442,0.138,0.138
4,0.746,0.741,0.075,0.075
4,0.082,0.082,0.372,0.372
4,0.216,0.216,0.232,0.232
4,0.423,0.420,0.144,0.144
4,0.171,0.171,0.265,0.265
4,0.204,0.204,0.240,0.240
4,0.263,0.262,0.205,0.205
4,0.658,0.653,0.091,0.091
4,0.341,0.339,0.171,0.171
4,0.288,0.287,0.193,0.193
4,0.996,0.994,0.027,0.027
4,0.855,0.850,0.058,0.058
4,0.403,0.400,0.150,0.150
4,0.629,0.624,0.096,0.096
4,0.263,0.262,0.205,0.205
4,0.731,0.725,0.078,0.078
4,0.998,0.996,0.025,0.025
4,0.128,0.128,0.306,0.306
4,0.695,0.690,0.084,0.084
4,0.489,0.486,0.126,0.126
4,0.379,0.376,0.158,0.158
4,0.841,0.835,0.060,0.060
4,0.839,0.833,0.061,0.061
4,0.354,0.352,0.166,0.166
4,0.498,0.495,0.124,0.124
4,0.396,0.393,0.152,0.152
4,0.039,0.040,0.482,0.482
4,0.134,0.135,0.299,0.299
4,0.396,0.394,0.152,0.152
4,0.608,0.603,0.100,0.100
4,0.387,0.385,0.155,0.155
4,0.780,0.774,0.070,0.070
4,0.848,0.842,0.059,0.059
4,0.473,0.469,0.130,0.130
4,0.196,0.196,0.245,0.245
4,0.434,0.431,0.140,0.140
4,0.157,0.158,0.276,0.276
4,0.732,0.726,0.078,0.078
4,0.356,0.354,0.165,0.165
4,0.306,0.305,0.185,0.185
4,0.631,0.627,0.095,0.095
4,0.813,0.807,0.065,0.065
4,0.360,0.358,0.164,0.164
4,0.298,0.297,0.188,0.188
4,0.269,0.268,0.202,0.202
4,0.739,0.733,0.077,0.077
4,0.335,0.333,0.173,0.173
4,0.622,0.618,0.097,0.097
4,0.037,0.038,0.491,0.491
4,0.157,0.157,0.277,0.277
4,0.809,0.803,0.065,0.065
4,0.058,0.059,0.423,0.423
4,0.632,0.627,0.095,0.095
4,0.177,0.177,0.260,0.260
4,0.701,0.696,0.083,0.083
4,0.813,0.807,0.065,0.065
4,0.574,0.569,0.107,0.107
4,0.492,0.489,0.125,0.125
4,0.710,0.705,0.081,0.081
4,0.379,0.377,0.158,0.158
4,0.378,0.376,0.158,0.158
4,0.909,0.903,0.049,0.049
4,0.106,0.106,0.334,0.334
4,0.445,0.442,0.137,0.137
4,0.099,0.100,0.343,0.343
4,0.594,0.590,0.103,0.103
4,0.071,0.071,0.394,0.394
4,0.311,0.310,0.183,0.183
4,0.949,0.945,0.041,0.041
4,0.738,0.733,0.077,0.077
4,0.413,0.410,0.147,0.147
4,0.557,0.553,0.110,0.110
4,0.575,0.570,0.107,0.107
4,0.753,0.748,0.074,0.074
4,0.232,0.232,0.222,0.222
4,0.975,0.971,0.035,0.035
4,0.110,0.111,0.328,0.328
4,0.170,0.170,0.265,0.265
4,0.186,0.185,0.253,0.253
4,0.044,0.045,0.464,0.464
4,0.423,0.420,0.144,0.144
4,0.922,0.917,0.047,0.047
4,0.979,0.975,0.034,0.034
4,0.411,0.409,0.147,0.147
4,0.473,0.469,0.130,0.130
4,0.446,0.443,0.137,0.137
4,0.205,0.204,0.239,0.239
4,0.440,0.437,0.139,0.139
4,0.627,0.623,0.096,0.096
4,0.753,0.747,0.074,0.074
4,0.802,0.796,0.066,0.066
4,0.850,0.844,0.059,0.059
4,0.541,0.537,0.114,0.114
4,0.029,0.030,0.527,0.527
4,0.449,0.446,0.136,0.136
4,0.845,0.839,0.060,0.060
4,0.638,0.634,0.094,0.094
4,0.764,0.759,0.072,0.072
4,0.266,0.265,0.203,0.203
4,0.725,0.720,0.079,0.079
4,0.891,0.886,0.052,0.052
4,0.210,0.210,0.236,0.236
4,0.368,0.366,0.161,0.161
4,0.902,0.897,0.050,0.050
4,0.144,0.144,0.289,0.289
4,0.020,0.021,0.582,0.582
4,0.784,0.778,0.069,0.069
4,0.575,0.570,0.107,0.107
4,0.873,0.867,0.055,0.055
4,0.873,0.868,0.055,0.055
4,0.728,0.723,0.078,0.078
4,0.084,0.084,0.369,0.369
4,0.344,0.342,0.170,0.170
4,0.874,0.869,0.055,0.055
4,0.967,0.963,0.037,0.037
4,0.805,0.799,0.066,0.066
4,0.308,0.307,0.184,0.184
4,0.945,0.940,0.042,0.042
4,0.516,0.513,0.119,0.119
4,0.308,0.306,0.184,0.184
4,0.211,0.210,0.235,0.235
4,0.810,0.804,0.065,0.065
4,0.460,0.456,0.134,0.134
4,0.468,0.464,0.131,0.131
4,0.666,0.661,0.089,0.089
4,0.004,0.005,0.783,0.783
4,0.883,0.878,0.053,0.053
4,0.836,0.830,0.061,0.061
4,0.567,0.563,0.108,0.108
4,0.032,0.033,0.511,0.511
4,0.085,0.086,0.365,0.365
4,0.004,0.005,0.785,0.785
4,0.717,0.711,0.080,0.080
4,0.973,0.969,0.036,0.036
4,0.434,0.431,0.141,0.141
4,0.559,0.555,0.110,0.110
4,0.009,0.010,0.696,0.696
4,0.807,0.801,0.066,0.066
4,0.382,0.380,0.156,0.156
4,0.729,0.723,0.078,0.078
4,0.397,0.395,0.152,0.152
4,0.842,0.837,0.060,0.060
4,0.492,0.488,0.125,0.125
4,0.101,0.102,0.340,0.340
4,0.044,0.045,0.462,0.462
4,0.048,0.049,0.450,0.450
4,0.706,0.700,0.082,0.082
4,0.754,0.749,0.074,0.074
4,0.824,0.818,0.063,0.063
4,0.310,0.308,0.183,0.183
4,0.789,0.784,0.068,0.068
4,0.072,0.073,0.391,0.391
4,0.083,0.083,0.370,0.370
4,0.510,0.506,0.121,0.121
4,0.481,0.477,0.128,0.128
4,0.776,0.771,0.071,0.071
4,0.158,0.158,0.276,0.276
4,0.411,0.409,0.147,0.147
4,0.370,0.368,0.161,0.161
4,0.464,0.461,0.132,0.132
4,0.574,0.570,0.107,0.107
4,0.402,0.399,0.150,0.150
4,0.087,0.088,0.362,0.362
4,0.393,0.391,0.153,0.153
4,0.172,0.171,0.264,0.264
4,0.093,0.094,0.353,0.353
4,0.572,0.568,0.107,0.107
4,0.590,0.586,0.103,0.103
4,0.002,0.003,0.859,0.859
4,0.208,0.208,0.237,0.237
4,0.402,0.400,0.150,0.150
4,0.083,0.084,0.369,0.369
4,0.816,0.810,0.064,0.064
4,0.137,0.138,0.296,0.296
4,0.108,0.109,0.330,0.330
4,0.387,0.385,0.155,0.155
4,0.651,0.646,0.092,0.092
4,0.799,0.794,0.067,0.067
4,0.453,0.450,0.135,0.135
4,0.456,0.453,0.134,0.134
4,0.661,0.656,0.090,0.090
4,0.244,0.243,0.215,0.215
4,0.792,0.786,0.068,0.068
4,0.369,0.366,0.161,0.161
4,0.463,0.460,0.133,0.133
4,0.113,0.114,0.324,0.324
4,0.670,0.665,0.088,0.088
4,0.253,0.252,0.210,0.210
4,0.265,0.264,0.204,0.204
4,0.911,0.906,0.049,0.049
4,0.814,0.808,0.065,0.065
4,0.724,0.719,0.079,0.079
4,0.893,0.888,0.052,0.052
4,0.120,0.120,0.316,0.316
4,0.344,0.342,0.170,0.170
4,0.619,0.615,0.098,0.098
4,0.078,0.079,0.378,0.378
4,0.793,0.787,0.068,0.068
4,0.744,0.739,0.076,0.076
4,0.266,0.265,0.203,0.203
4,0.408,0.405,0.148,0.148
4,0.812,0.806,0.065,0.065
4,0.669,0.664,0.089,0.089
4,0.412,0.409,0.147,0.147
4,0.787,0.781,0.069,0.069
4,0.511,0.507,0.121,0.121
4,0.944,0.940,0.042,0.042
4,0.424,0.421,0.144,0.144
4,0.410,0.407,0.148,0.148
4,0.081,0.082,0.372,0.372
4,0.716,0.710,0.081,0.081
4,0.375,0.373,0.159,0.159
4,0.151,0.152,0.282,0.282
4,0.163,0.163,0.271,0.271
4,0.628,0.624,0.096,0.096
4,0.290,0.288,0.192,0.192
4,0.180,0.180,0.257,0.257
4,0.028,0.029,0.531,0.531
4,0.479,0.476,0.128,0.128
4,0.260,0.259,0.207,0.207
4,0.692,0.687,0.084,0.084
4,0.246,0.245,0.214,0.214
4,0.129,0.129,0.305,0.305
4,0.313,0.311,0.182,0.182
4,0.302,0.301,0.187,0.187
4,0.267,0.266,0.203,0.203
4,0.330,0.328,0.175,0.175
4,0.460,0.456,0.134,0.134
4,0.356,0.354,0.165,0.165
4,0.890,0.884,0.052,0.052
4,0.687,0.682,0.085,0.085
4,0.326,0.324,0.177,0.177
4,0.025,0.026,0.547,0.547
4,0.175,0.175,0.261,0.261
4,0.969,0.965,0.037,0.037
4,0.152,0.152,0.282,0.282
4,0.685,0.680,0.086,0.086
4,0.302,0.300,0.187,0.187
4,0.949,0.944,0.041,0.041
4,0.402,0.400,0.150,0.150
4,0.455,0.452,0.135,0.135
4,0.928,0.923,0.045,0.045
4,0.789,0.783,0.069,0.069
4,0.365,0.363,0.162,0.162
4,0.285,0.284,0.194,0.194
4,0.801,0.795,0.067,0.067
4,0.704,0.699,0.082,0.082
4,0.398,0.396,0.151,0.151
4,0.214,0.213,0.233,0.233
4,0.099,0.100,0.343,0.343
4,0.567,0.563,0.108,0.108
4,0.065,0.066,0.406,0.406
4,0.792,0.786,0.068,0.068
4,0.482,0.479,0.128,0.128
4,0.138,0.138,0.296,0.296
4,0.113,0.113,0.325,0.325
4,0.339,0.337,0.172,0.172
4,0.131,0.132,0.302,0.302
4,0.699,0.694,0.083,0.083
4,0.386,0.384,0.155,0.155
4,0.562,0.558,0.109,0.109
4,0.233,0.233,0.221,0.221
4,0.359,0.357,0.164,0.164
4,0.244,0.243,0.215,0.215
4,0.180,0.180,0.257,0.257
4,0.385,0.383,0.155,0.155
4,0.071,0.072,0.393,0.393
4,0.443,0.440,0.138,0.138
4,0.365,0.363,0.162,0.162
4,0.068,0.069,0.399,0.399
4,0.848,0.842,0.059,0.059
4,0.176,0.176,0.260,0.260
4,0.725,0.720,0.079,0.079
4,0.328,0.327,0.176,0.176
4,0.681,0.676,0.086,0.086
4,0.466,0.463,0.132,0.132
4,0.076,0.077,0.383,0.383
4,0.696,0.691,0.084,0.084
4,0.653,0.648,0.091,0.091
4,0.498,0.494,0.124,0.124
4,0.313,0.312,0.182,0.182
4,0.458,0.455,0.134,0.134
4,0.025,0.026,0.548,0.548
4,0.391,0.388,0.154,0.154
4,0.163,0.163,0.271,0.271
4,0.900,0.895,0.050,0.050
4,0.996,0.994,0.027,0.027
4,0.716,0.710,0.081,0.081
4,0.563,0.559,0.109,0.109
4,0.938,0.933,0.044,0.044
4,0.935,0.930,0.044,0.044
4,0.892,0.886,0.052,0.052
4,0.167,0.167,0.268,0.268
4,0.908,0.903,0.049,0.049
4,0.361,0.358,0.164,0.164
4,0.729,0.723,0.078,0.078
4,0.151,0.151,0.282,0.282
4,0.313,0.311,0.182,0.182
4,0.177,0.177,0.260,0.260
4,0.824,0.818,0.063,0.063
4,0.111,0.111,0.327,0.327
4,0.874,0.869,0.055,0.055
4,0.141,0.142,0.292,0.292
4,0.550,0.546,0.112,0.112
4,0.035,0.036,0.499,0.499
4,0.172,0.172,0.263,0.263
4,0.348,0.346,0.169,0.169
4,0.530,0.526,0.116,0.116
4,0.369,0.366,0.161,0.161
4,0.101,0.102,0.341,0.341
4,0.206,0.205,0.239,0.239
4,0.374,0.372,0.159,0.159
4,0.129,0.129,0.305,0.305
4,0.883,0.877,0.053,0.053
4,0.581,0.577,0.105,0.105
4,0.258,0.257,0.208,0.208
4,0.258,0.258,0.207,0.207
4,0.543,0.539,0.113,0.113
4,0.452,0.449,0.136,0.136
4,0.949,0.945,0.041,0.041
4,0.230,0.229,0.223,0.223
4,0.362,0.360,0.163,0.163
4,0.531,0.527,0.116,0.116
4,0.306,0.304,0.185,0.185
4,0.958,0.953,0.039,0.039
4,0.920,0.915,0.047,0.047
4,0.575,0.571,0.107,0.107
4,0.597,0.592,0.102,0.102
4,0.609,0.604,0.100,0.100
4,0.923,0.918,0.046,0.046
4,0.770,0.765,0.072,0.072
4,0.908,0.902,0.049,0.049
4,0.083,0.083,0.370,0.370
4,0.644,0.639,0.093,0.093
4,0.597,0.593,0.102,0.102
4,0.092,0.093,0.355,0.355
4,0.816,0.810,0.064,0.064
4,0.708,0.703,0.082,0.082
4,0.128,0.129,0.306,0.306
4,0.222,0.221,0.228,0.228
4,0.194,0.194,0.247,0.247
4,0.834,0.828,0.061,0.061
4,0.963,0.959,0.038,0.038
4,0.464,0.461,0.132,0.132
4,0.964,0.960,0.038,0.038
4,0.802,0.796,0.066,0.066
4,0.273,0.272,0.200,0.200
4,0.020,0.021,0.578,0.578
4,0.168,0.168,0.267,0.267
4,0.221,0.221,0.228,0.228
4,0.033,0.034,0.507,0.507
4,0.511,0.508,0.121,0.121
4,0.542,0.538,0.114,0.114
5,0.761,0.761,0.072,0.072
5,0.477,0.477,0.128,0.128
5,0.864,0.864,0.056,0.056
5,0.053,0.053,0.440,0.440
5,0.485,0.485,0.126,0.126
5,0.246,0.246,0.213,0.213
5,0.670,0.670,0.088,0.088
5,0.200,0.200,0.242,0.242
5,0.141,0.141,0.292,0.292
5,0.252,0.252,0.210,0.210
5,0.342,0.342,0.170,0.170
5,0.564,0.564,0.108,0.108
5,0.067,0.067,0.404,0.404
5,0.648,0.648,0.091,0.091
5,0.102,0.102,0.341,0.341
5,0.435,0.435,0.140,0.140
5,0.903,0.903,0.049,0.049
5,0.391,0.391,0.153,0.153
5,0.709,0.709,0.081,0.081
5,0.342,0.342,0.170,0.170
5,0.169,0.169,0.266,0.266
5,0.632,0.632,0.094,0.094
5,0.446,0.446,0.136,0.136
5,0.012,0.012,0.662,0.662
5,0.276,0.276,0.198,0.198
5,0.296,0.296,0.189,0.189
5,0.693,0.693,0.083,0.083
5,0.135,0.135,0.298,0.298
5,0.878,0.878,0.053,0.053
5,0.721,0.721,0.079,0.079
5,0.832,0.832,0.061,0.061
5,0.509,0.509,0.120,0.120
5,0.840,0.840,0.059,0.059
5,0.448,0.448,0.136,0.136
5,0.910,0.910,0.048,0.048
5,0.469,0.469,0.130,0.130
5,0.321,0.321,0.178,0.178
5,0.816,0.816,0.063,0.063
5,0.305,0.305,0.185,0.185
5,0.708,0.708,0.081,0.081
5,0.597,0.597,0.101,0.101
5,0.533,0.533,0.115,0.115
5,0.850,0.850,0.058,0.058
5,0.922,0.922,0.046,0.046
5,0.959,0.959,0.038,0.038
5,0.721,0.721,0.079,0.079
5,0.918,0.918,0.046,0.046
5,0.513,0.513,0.119,0.119
5,0.131,0.131,0.303,0.303
5,0.821,0.821,0.063,0.063
5,0.605,0.605,0.100,0.100
5,0.044,0.044,0.468,0.468
5,0.361,0.361,0.163,0.163
5,0.074,0.074,0.388,0.388
5,0.718,0.718,0.079,0.079
5,0.459,0.459,0.133,0.133
5,0.265,0.265,0.204,0.204
5,0.695,0.695,0.083,0.083
5,0.140,0.140,0.293,0.293
5,0.026,0.026,0.546,0.546
5,0.100,0.100,0.344,0.344
5,0.322,0.322,0.178,0.178
5,0.224,0.224,0.226,0.226
5,0.504,0.504,0.121,0.121
5,0.396,0.397,0.151,0.151
5,0.173,0.173,0.262,0.262
5,0.359,0.359,0.163,0.163
5,0.574,0.574,0.106,0.106
5,0.643,0.643,0.092,0.092
5,0.328,0.328,0.175,0.175
5,0.458,0.458,0.133,0.133
5,0.841,0.841,0.059,0.059
5,0.961,0.961,0.038,0.038
5,0.034,0.034,0.508,0.508
5,0.397,0.397,0.151,0.151
5,0.161,0.161,0.273,0.273
5,0.005,0.005,0.779,0.779
5,0.431,0.431,0.141,0.141
5,0.134,0.134,0.300,0.300
5,0.903,0.903,0.049,0.049
5,0.426,0.426,0.142,0.142
5,0.380,0.380,0.156,0.156
5,0.648,0.648,0.091,0.091
5,0.039,0.039,0.488,0.488
5,0.289,0.289,0.192,0.192
5,0.437,0.437,0.139,0.139
5,0.462,0.462,0.132,0.132
5,0.793,0.793,0.067,0.067
5,0.529,0.529,0.116,0.116
5,0.345,0.345,0.169,0.169
5,0.405,0.405,0.148,0.148
5,0.132,0.132,0.302,0.302
5,0.665,0.666,0.088,0.088
5,0.930,0.930,0.044,0.044
5,0.007,0.007,0.734,0.734
5,0.226,0.226,0.225,0.225
5,0.873,0.873,0.054,0.054
5,0.545,0.545,0.112,0.112
5,0.506,0.506,0.121,0.121
5,0.077,0.077,0.382,0.382
5,0.336,0.336,0.172,0.172
5,0.234,0.234,0.220,0.220
5,0.965,0.965,0.037,0.037
5,0.392,0.392,0.153,0.153
5,0.225,0.225,0.226,0.226
5,0.610,0.610,0.099,0.099
5,0.773,0.773,0.070,0.070
5,0.610,0.610,0.099,0.099
5,0.516,0.516,0.119,0.119
5,0.003,0.003,0.845,0.845
5,0.298,0.298,0.188,0.188
5,0.818,0.818,0.063,0.063
5,0.345,0.345,0.169,0.169
5,0.231,0.231,0.222,0.222
5,0.926,0.926,0.045,0.045
5,0.356,0.356,0.165,0.165
5,0.221,0.221,0.228,0.228
5,0.558,0.558,0.109,0.109
5,0.734,0.734,0.076,0.076
5,0.344,0.344,0.169,0.169
5,0.082,0.082,0.373,0.373
5,0.720,0.720,0.079,0.079
5,0.110,0.110,0.329,0.329
5,0.275,0.275,0.198,0.198
5,0.895,0.895,0.050,0.050
5,0.207,0.207,0.237,0.237
5,0.858,0.858,0.057,0.057
5,0.436,0.436,0.139,0.139
5,0.340,0.340,0.170,0.170
5,0.243,0.243,0.215,0.215
5,0.172,0.172,0.263,0.263
5,0.191,0.191,0.249,0.249
5,0.691,0.691,0.084,0.084
5,0.459,0.459,0.133,0.133
5,0.448,0.448,0.136,0.136
5,0.322,0.322,0.178,0.178
5,0.387,0.387,0.154,0.154
5,0.199,0.199,0.243,0.243
5,0.015,0.015,0.635,0.635
5,0.065,0.065,0.408,0.408
5,0.063,0.063,0.414,0.414
5,0.286,0.286,0.193,0.193
5,0.675,0.675,0.087,0.087
5,0.248,0.248,0.212,0.212
5,0.440,0.440,0.138,0.138
5,0.065,0.065,0.409,0.409
5,0.142,0.142,0.292,0.292
5,0.615,0.615,0.098,0.098
5,0.201,0.201,0.242,0.242
5,0.573,0.573,0.106,0.106
5,0.399,0.399,0.150,0.150
5,0.333,0.333,0.174,0.174
5,0.188,0.188,0.251,0.251
5,0.191,0.191,0.248,0.248
5,0.438,0.438,0.139,0.139
5,0.798,0.798,0.066,0.066
5,0.409,0.409,0.147,0.147
5,0.786,0.786,0.068,0.068
5,0.957,0.957,0.039,0.039
5,0.377,0.377,0.157,0.157
5,0.354,0.354,0.165,0.165
5,0.593,0.593,0.102,0.102
5,0.709,0.709,0.081,0.081
5,0.920,0.920,0.046,0.046
5,0.542,0.542,0.113,0.113
5,0.259,0.259,0.207,0.207
5,0.873,0.873,0.054,0.054
5,0.695,0.695,0.083,0.083
5,0.428,0.428,0.141,0.141
5,0.971,0.971,0.035,0.035
5,0.130,0.130,0.304,0.304
5,0.747,0.747,0.074,0.074
5,0.229,0.229,0.223,0.223
5,0.043,0.043,0.472,0.472
5,0.526,0.526,0.116,0.116
5,0.311,0.311,0.182,0.182
5,0.619,0.619,0.097,0.097
5,0.150,0.150,0.283,0.283
5,0.530,0.530,0.115,0.115
5,0.686,0.686,0.085,0.085
5,0.315,0.315,0.181,0.181
5,0.230,0.230,0.223,0.223
5,0.393,0.393,0.152,0.152
5,0.414,0.414,0.146,0.146
5,0.533,0.533,0.115,0.115
5,0.249,0.249,0.212,0.212
5,0.330,0.330,0.174,0.174
5,0.370,0.370,0.160,0.160
5,0.684,0.684,0.085,0.085
5,0.731,0.731,0.077,0.077
5,0.758,0.758,0.073,0.073
5,0.264,0.264,0.204,0.204
5,0.514,0.514,0.119,0.119
5,0.252,0.252,0.210,0.210
5,0.871,0.871,0.054,0.054
5,0.014,0.014,0.643,0.643
5,0.082,0.082,0.373,0.373
5,0.976,0.976,0.034,0.034
5,0.018,0.018,0.602,0.602
5,0.875,0.875,0.054,0.054
5,0.419,0.419,0.144,0.144
5,0.836,0.836,0.060,0.060
5,0.417,0.417,0.145,0.145
5,0.418,0.418,0.144,0.144
5,0.613,0.613,0.098,0.098
5,0.606,0.606,0.099,0.099
5,0.214,0.214,0.232,0.232
5,0.378,0.378,0.157,0.157
5,0.669,0.669,0.088,0.088
5,0.284,0.284,0.194,0.194
5,0.212,0.212,0.234,0.234
5,0.050,0.050,0.448,0.448
5,0.739,0.739,0.076,0.076
5,0.036,0.036,0.498,0.498
5,0.664,0.664,0.089,0.089
5,0.780,0.780,0.069,0.069
5,0.489,0.489,0.125,0.125
5,0.247,0.247,0.213,0.213
5,0.825,0.825,0.062,0.062
5,0.321,0.321,0.178,0.178
5,0.546,0.546,0.112,0.112
5,0.321,0.321,0.178,0.178
5,0.779,0.779,0.069,0.069
5,0.489,0.489,0.125,0.125
5,0.602,0.602,0.100,0.100
5,0.082,0.082,0.373,0.373
5,0.222,0.222,0.228,0.228
5,0.838,0.838,0.060,0.060
5,0.767,0.767,0.071,0.071
5,0.991,0.991,0.028,0.028
5,0.207,0.207,0.238,0.238
5,0.309,0.309,0.183,0.183
5,0.740,0.740,0.076,0.076
5,0.663,0.663,0.089,0.089
5,0.323,0.323,0.177,0.177
5,0.734,0.734,0.077,0.077
5,0.916,0.916,0.047,0.047
5,0.492,0.492,0.124,0.124
5,0.834,0.834,0.060,0.060
5,0.546,0.547,0.112,0.112
5,0.189,0.189,0.250,0.250
5,0.401,0.401,0.150,0.150
5,0.461,0.461,0.132,0.132
5,0.320,0.320,0.178,0.178
5,0.868,0.868,0.055,0.055
5,0.630,0.630,0.095,0.095
5,0.414,0.414,0.146,0.146
5,0.961,0.961,0.038,0.038
5,0.109,0.109,0.331,0.331
5,0.711,0.711,0.080,0.080
5,0.486,0.486,0.126,0.126
5,0.501,0.501,0.122,0.122
5,0.070,0.070,0.397,0.397
5,0.791,0.791,0.067,0.067
5,0.913,0.913,0.047,0.047
5,0.619,0.619,0.097,0.097
5,0.461,0.461,0.132,0.132
5,0.554,0.554,0.110,0.110
5,0.222,0.222,0.228,0.228
5,0.531,0.531,0.115,0.115
5,0.744,0.744,0.075,0.075
5,0.822,0.822,0.062,0.062
5,0.605,0.605,0.100,0.100
5,0.217,0.217,0.231,0.231
5,0.787,0.787,0.068,0.068
5,0.168,0.168,0.267,0.267
5,0.089,0.089,0.361,0.361
5,0.081,0.081,0.375,0.375
5,0.820,0.820,0.063,0.063
5,0.192,0.192,0.248,0.248
5,0.835,0.835,0.060,0.060
5,0.746,0.746,0.075,0.075
5,0.056,0.056,0.432,0.432
5,0.769,0.769,0.071,0.071
5,0.593,0.593,0.102,0.102
5,0.901,0.901,0.049,0.049
5,0.013,0.013,0.657,0.657
5,0.024,0.024,0.557,0.557
5,0.024,0.024,0.558,0.558
5,0.947,0.947,0.041,0.041
5,0.600,0.600,0.101,0.101
5,0.281,0.281,0.196,0.196
5,0.996,0.996,0.025,0.025
5,0.040,0.040,0.483,0.483
5,0.803,0.803,0.065,0.065
5,0.305,0.305,0.185,0.185
5,0.376,0.376,0.158,0.158
5,0.512,0.512,0.120,0.120
5,0.651,0.651,0.091,0.091
5,0.148,0.148,0.286,0.286
5,0.253,0.253,0.210,0.210
5,0.019,0.019,0.596,0.596
5,0.047,0.047,0.457,0.457
5,0.935,0.935,0.043,0.043
5,0.782,0.782,0.069,0.069
5,0.771,0.771,0.071,0.071
5,0.351,0.351,0.166,0.166
5,0.858,0.858,0.057,0.057
5,0.329,0.329,0.175,0.175
5,0.133,0.133,0.301,0.301
5,0.723,0.723,0.078,0.078
5,0.249,0.249,0.212,0.212
5,0.357,0.357,0.165,0.165
5,0.177,0.177,0.259,0.259
5,0.737,0.737,0.076,0.076
5,0.701,0.701,0.082,0.082
5,0.726,0.726,0.078,0.078
5,0.356,0.356,0.165,0.165
5,0.266,0.266,0.203,0.203
5,0.134,0.134,0.300,0.300
5,0.344,0.344,0.169,0.169
5,0.146,0.146,0.287,0.287
5,0.035,0.035,0.502,0.502
5,0.467,0.467,0.131,0.131
5,0.743,0.743,0.075,0.075
5,0.001,0.001,1.004,1.004
5,0.435,0.435,0.139,0.139
5,0.154,0.154,0.280,0.280
5,0.101,0.101,0.341,0.341
5,0.619,0.619,0.097,0.097
5,0.134,0.134,0.299,0.299
5,0.098,0.098,0.347,0.347
5,0.637,0.637,0.093,0.093
5,0.896,0.896,0.050,0.050
5,0.875,0.875,0.054,0.054
5,0.294,0.294,0.190,0.190
5,0.157,0.157,0.277,0.277
5,0.335,0.335,0.173,0.173
5,0.165,0.165,0.270,0.270
5,0.609,0.609,0.099,0.099
5,0.705,0.705,0.081,0.081
5,0.184,0.184,0.254,0.254
5,0.152,0.152,0.282,0.282
5,0.989,0.988,0.029,0.029
5,0.749,0.749,0.074,0.074
5,0.599,0.599,0.101,0.101
5,0.694,0.694,0.083,0.083
5,0.647,0.647,0.092,0.092
5,0.895,0.895,0.050,0.050
5,0.904,0.904,0.049,0.049
5,0.034,0.034,0.506,0.506
5,0.608,0.608,0.099,0.099
5,0.438,0.438,0.139,0.139
5,0.018,0.018,0.606,0.606
5,0.418,0.418,0.144,0.144
5,0.538,0.538,0.114,0.114
5,0.085,0.085,0.367,0.367
5,0.164,0.164,0.271,0.271
5,0.476,0.476,0.128,0.128
5,0.920,0.920,0.046,0.046
5,0.287,0.287,0.193,0.193
5,0.539,0.539,0.113,0.113
5,0.817,0.817,0.063,0.063
5,0.871,0.871,0.055,0.055
5,0.932,0.932,0.044,0.044
5,0.314,0.314,0.181,0.181
5,0.039,0.039,0.486,0.486
5,0.693,0.693,0.084,0.084
5,0.403,0.403,0.149,0.149
5,0.068,0.068,0.400,0.400
5,0.053,0.053,0.440,0.440
5,0.992,0.992,0.027,0.027
5,0.193,0.193,0.247,0.247
5,0.120,0.120,0.316,0.316
5,0.174,0.174,0.262,0.262
5,0.908,0.907,0.048,0.048
5,0.103,0.103,0.339,0.339
5,0.575,0.575,0.106,0.106
5,0.178,0.178,0.259,0.259
5,0.445,0.445,0.137,0.137
5,0.169,0.169,0.266,0.266
5,0.461,0.461,0.132,0.132
5,0.114,0.114,0.323,0.323
5,0.534,0.534,0.115,0.115
5,0.378,0.378,0.157,0.157
5,0.181,0.181,0.256,0.256
5,0.536,0.536,0.114,0.114
5,0.545,0.545,0.112,0.112
5,0.301,0.301,0.187,0.187
5,0.010,0.010,0.693,0.693
5,0.633,0.633,0.094,0.094
5,0.819,0.819,0.063,0.063
5,0.246,0.246,0.214,0.214
5,0.873,0.873,0.054,0.054
5,0.569,0.569,0.107,0.107
5,0.779,0.779,0.069,0.069
5,0.691,0.691,0.084,0.084
5,0.169,0.169,0.266,0.266
5,0.969,0.969,0.036,0.036
5,0.611,0.611,0.098,0.098
5,0.565,0.565,0.108,0.108
5,0.181,0.181,0.257,0.257
5,0.712,0.712,0.080,0.080
5,0.896,0.896,0.050,0.050
5,0.360,0.360,0.163,0.163
5,0.692,0.692,0.084,0.084
5,0.456,0.456,0.134,0.134
5,0.415,0.415,0.145,0.145
5,0.109,0.109,0.331,0.331
5,0.739,0.739,0.076,0.076
5,0.257,0.257,0.208,0.208
5,0.042,0.042,0.474,0.474
5,0.070,0.070,0.397,0.397
5,0.180,0.180,0.257,0.257
5,0.056,0.056,0.430,0.430
5,0.674,0.674,0.087,0.087
5,0.258,0.258,0.207,0.207
5,0.670,0.670,0.087,0.087
5,0.123,0.123,0.312,0.312
5,0.451,0.451,0.135,0.135
5,0.135,0.135,0.299,0.299
5,0.607,0.607,0.099,0.099
5,0.754,0.755,0.073,0.073
5,0.148,0.148,0.285,0.285
5,0.814,0.814,0.064,0.064
5,0.165,0.165,0.269,0.269
5,0.075,0.075,0.387,0.387
5,0.962,0.962,0.037,0.037
5,0.590,0.590,0.103,0.103
5,0.434,0.434,0.140,0.140
5,0.201,0.201,0.242,0.242
5,0.831,0.831,0.061,0.061
5,0.146,0.146,0.287,0.287
5,0.214,0.214,0.233,0.233
5,0.459,0.459,0.133,0.133
5,0.330,0.330,0.175,0.175
5,0.361,0.361,0.163,0.163
5,0.188,0.188,0.251,0.251
5,0.490,0.490,0.125,0.125
5,0.015,0.015,0.632,0.632
5,0.923,0.923,0.045,0.045
5,0.081,0.081,0.376,0.376
5,0.998,0.998,0.024,0.024
5,0.708,0.708,0.081,0.081
5,0.555,0.555,0.110,0.110
5,0.240,0.240,0.217,0.217
5,0.991,0.990,0.028,0.028
5,0.454,0.454,0.134,0.134
5,0.855,0.855,0.057,0.057
5,0.633,0.633,0.094,0.094
5,0.795,0.795,0.067,0.067
5,0.449,0.449,0.136,0.136
5,0.907,0.907,0.048,0.048
5,0.475,0.475,0.129,0.129
5,0.109,0.109,0.331,0.331
5,0.240,0.240,0.217,0.217
5,0.600,0.601,0.101,0.101
5,0.492,0.492,0.124,0.124
5,0.879,0.879,0.053,0.053
5,0.041,0.041,0.478,0.478
5,0.703,0.703,0.082,0.082
5,0.010,0.010,0.695,0.695
5,0.440,0.440,0.138,0.138
5,0.595,0.595,0.102,0.102
5,0.193,0.193,0.247,0.247
5,0.724,0.724,0.078,0.078
5,0.060,0.060,0.419,0.419
5,0.593,0.593,0.102,0.102
5,0.346,0.346,0.168,0.168
5,0.061,0.061,0.418,0.418
5,0.758,0.758,0.073,0.073
5,0.463,0.463,0.132,0.132
5,0.479,0.479,0.128,0.128
5,0.155,0.155,0.279,0.279
5,0.614,0.614,0.098,0.098
5,0.202,0.202,0.241,0.241
5,0.895,0.895,0.050,0.050
5,0.679,0.679,0.086,0.086
5,0.831,0.831,0.061,0.061
5,0.621,0.621,0.097,0.097
5,0.823,0.823,0.062,0.062
5,0.582,0.582,0.104,0.104
5,0.546,0.546,0.112,0.112
5,0.293,0.293,0.190,0.190
5,0.302,0.302,0.186,0.186
5,0.495,0.495,0.124,0.124
5,0.646,0.646,0.092,0.092
5,0.889,0.889,0.051,0.051
5,0.882,0.882,0.053,0.053
5,0.083,0.083,0.370,0.370
5,0.948,0.948,0.041,0.041
5,0.792,0.792,0.067,0.067
5,0.019,0.019,0.598,0.598
5,0.452,0.452,0.135,0.135
5,0.426,0.426,0.142,0.142
5,0.470,0.470,0.130,0.130
5,0.272,0.272,0.200,0.200
5,0.628,0.628,0.095,0.095
5,0.743,0.743,0.075,0.075
5,0.827,0.827,0.061,0.061
5,0.296,0.296,0.189,0.189
5,0.868,0.868,0.055,0.055
5,0.401,0.401,0.150,0.150
5,0.197,0.197,0.245,0.245
5,0.004,0.004,0.832,0.832
5,0.055,0.055,0.432,0.432
5,0.639,0.639,0.093,0.093
5,0.007,0.007,0.747,0.747
5,0.727,0.727,0.078,0.078
5,0.738,0.738,0.076,0.076
10,0.513,0.513,0.118,0.118
10,0.869,0.869,0.053,0.053
10,0.743,0.743,0.073,0.073
10,0.347,0.347,0.166,0.166
10,0.565,0.565,0.106,0.106
10,0.095,0.095,0.353,0.353
10,0.146,0.146,0.288,0.288
10,0.032,0.032,0.524,0.524
10,0.938,0.938,0.041,0.041
10,0.924,0.924,0.043,0.043
10,0.160,0.160,0.274,0.274
10,0.593,0.593,0.100,0.100
10,0.397,0.397,0.149,0.149
10,0.295,0.295,0.188,0.188
10,0.499,0.499,0.121,0.121
10,0.882,0.882,0.051,0.051
10,0.655,0.655,0.088,0.088
10,0.252,0.252,0.209,0.209
10,0.408,0.408,0.146,0.146
10,0.340,0.340,0.169,0.169
10,0.780,0.780,0.067,0.067
10,0.991,0.991,0.026,0.026
10,0.263,0.263,0.204,0.204
10,0.752,0.752,0.072,0.072
10,0.269,0.269,0.201,0.201
10,0.273,0.273,0.198,0.198
10,0.040,0.040,0.491,0.491
10,0.262,0.262,0.204,0.204
10,0.853,0.853,0.056,0.056
10,0.787,0.787,0.066,0.066
10,0.189,0.189,0.250,0.250
10,0.229,0.229,0.223,0.223
10,0.862,0.862,0.054,0.054
10,0.941,0.941,0.040,0.040
10,0.749,0.749,0.072,0.072
10,0.384,0.384,0.153,0.153
10,0.283,0.283,0.194,0.194
10,0.850,0.850,0.056,0.056
10,0.908,0.908,0.046,0.046
10,0.913,0.912,0.046,0.046
10,0.728,0.728,0.076,0.076
10,0.849,0.849,0.056,0.056
10,0.973,0.973,0.033,0.033
10,0.127,0.127,0.308,0.308
10,0.908,0.908,0.046,0.046
10,0.820,0.820,0.061,0.061
10,0.755,0.755,0.071,0.071
10,0.204,0.204,0.239,0.239
10,0.031,0.031,0.530,0.530
10,0.753,0.753,0.072,0.072
10,0.855,0.855,0.055,0.055
10,0.584,0.584,0.102,0.102
10,0.877,0.877,0.052,0.052
10,0.316,0.316,0.179,0.179
10,0.886,0.886,0.050,0.050
10,0.770,0.770,0.069,0.069
10,0.298,0.298,0.186,0.186
10,0.624,0.624,0.094,0.094
10,0.059,0.059,0.429,0.429
10,0.381,0.381,0.154,0.154
10,0.233,0.233,0.220,0.220
10,0.955,0.955,0.037,0.037
10,0.133,0.133,0.302,0.302
10,0.416,0.416,0.143,0.143
10,0.484,0.484,0.125,0.125
10,0.194,0.194,0.246,0.246
10,0.609,0.609,0.097,0.097
10,0.716,0.716,0.078,0.078
10,0.305,0.305,0.183,0.183
10,0.633,0.633,0.092,0.092
10,0.359,0.359,0.162,0.162
10,0.997,0.997,0.022,0.022
10,0.800,0.800,0.064,0.064
10,0.168,0.168,0.267,0.267
10,0.685,0.685,0.083,0.083
10,0.117,0.117,0.321,0.321
10,0.328,0.328,0.174,0.174
10,0.722,0.722,0.077,0.077
10,0.054,0.054,0.441,0.441
10,0.318,0.318,0.178,0.178
10,0.330,0.330,0.173,0.173
10,0.238,0.238,0.217,0.217
10,0.518,0.518,0.116,0.116
10,0.331,0.332,0.172,0.172
10,0.898,0.898,0.048,0.048
10,0.705,0.705,0.080,0.080
10,0.402,0.402,0.148,0.148
10,0.855,0.855,0.055,0.055
10,0.392,0.392,0.151,0.151
10,0.116,0.116,0.322,0.322
10,0.688,0.688,0.083,0.083
10,0.254,0.254,0.208,0.208
10,0.615,0.615,0.096,0.096
10,0.576,0.576,0.104,0.104
10,0.728,0.728,0.076,0.076
10,0.263,0.263,0.204,0.204
10,0.613,0.613,0.096,0.096
10,0.354,0.354,0.164,0.164
10,0.624,0.624,0.094,0.094
10,0.012,0.012,0.681,0.681
10,0.506,0.506,0.119,0.119
10,0.499,0.499,0.121,0.121
10,0.252,0.252,0.209,0.209
10,0.034,0.034,0.519,0.519
10,0.073,0.073,0.395,0.395
10,0.600,0.600,0.099,0.099
10,0.779,0.779,0.067,0.067
10,0.714,0.714,0.078,0.078
10,0.566,0.566,0.106,0.106
10,0.532,0.532,0.113,0.113
10,0.082,0.082,0.376,0.376
10,0.720,0.720,0.077,0.077
10,0.545,0.545,0.110,0.110
10,0.279,0.279,0.195,0.195
10,0.207,0.207,0.237,0.237
10,0.827,0.827,0.060,0.060
10,0.276,0.276,0.197,0.197
10,0.702,0.702,0.080,0.080
10,0.768,0.768,0.069,0.069
10,0.589,0.589,0.101,0.101
10,0.190,0.190,0.249,0.249
10,0.298,0.298,0.187,0.187
10,0.284,0.284,0.193,0.193
10,0.990,0.990,0.027,0.027
10,0.130,0.130,0.305,0.305
10,0.223,0.223,0.226,0.226
10,0.791,0.791,0.066,0.066
10,0.951,0.951,0.038,0.038
10,0.309,0.309,0.182,0.182
10,0.182,0.182,0.256,0.256
10,0.080,0.080,0.379,0.379
10,0.868,0.868,0.053,0.053
10,0.785,0.785,0.066,0.066
10,0.367,0.367,0.159,0.159
10,0.341,0.341,0.169,0.169
10,0.287,0.287,0.192,0.192
10,0.070,0.070,0.401,0.401
10,0.542,0.542,0.111,0.111
10,0.007,0.007,0.770,0.770
10,0.120,0.120,0.317,0.317
10,0.091,0.091,0.360,0.360
10,0.261,0.261,0.204,0.204
10,0.149,0.149,0.284,0.284
10,0.946,0.946,0.039,0.039
10,0.754,0.754,0.071,0.071
10,0.022,0.022,0.585,0.585
10,0.041,0.041,0.485,0.485
10,0.182,0.182,0.255,0.255
10,0.158,0.158,0.276,0.276
10,0.940,0.940,0.040,0.040
10,0.810,0.810,0.062,0.062
10,0.121,0.121,0.316,0.316
10,0.344,0.344,0.168,0.168
10,0.009,0.009,0.732,0.732
10,0.157,0.157,0.277,0.277
10,0.473,0.473,0.127,0.127
10,0.843,0.843,0.057,0.057
10,0.657,0.657,0.088,0.088
10,0.240,0.240,0.216,0.216
10,0.829,0.829,0.059,0.059
10,0.850,0.850,0.056,0.056
10,0.302,0.302,0.185,0.185
10,0.582,0.582,0.102,0.102
10,0.977,0.977,0.031,0.031
10,0.983,0.983,0.029,0.029
10,0.288,0.288,0.191,0.191
10,0.515,0.515,0.117,0.117
10,0.873,0.873,0.052,0.052
10,0.274,0.274,0.198,0.198
10,0.698,0.698,0.081,0.081
10,0.185,0.185,0.253,0.253
10,0.683,0.683,0.083,0.083
10,0.143,0.143,0.291,0.291
10,0.622,0.622,0.094,0.094
10,0.861,0.861,0.054,0.054
10,0.303,0.303,0.184,0.184
10,0.279,0.279,0.195,0.195
10,0.179,0.179,0.258,0.258
10,0.881,0.881,0.051,0.051
10,0.752,0.752,0.072,0.072
10,0.025,0.025,0.564,0.564
10,0.275,0.275,0.197,0.197
10,0.414,0.414,0.144,0.144
10,0.738,0.738,0.074,0.074
10,0.394,0.394,0.150,0.150
10,0.834,0.834,0.059,0.059
10,0.065,0.065,0.414,0.414
10,0.111,0.111,0.329,0.329
10,0.955,0.955,0.037,0.037
10,0.453,0.453,0.133,0.133
10,0.634,0.634,0.092,0.092
10,0.725,0.725,0.076,0.076
10,0.548,0.548,0.110,0.110
10,0.178,0.178,0.259,0.259
10,0.856,0.856,0.055,0.055
10,0.048,0.048,0.461,0.461
10,0.073,0.073,0.393,0.393
10,0.891,0.891,0.049,0.049
10,0.134,0.134,0.300,0.300
10,0.512,0.512,0.118,0.118
10,0.019,0.019,0.615,0.615
10,0.763,0.763,0.070,0.070
10,0.601,0.601,0.099,0.099
10,0.539,0.539,0.112,0.112
10,0.130,0.130,0.305,0.305
10,0.584,0.584,0.102,0.102
10,0.952,0.952,0.038,0.038
10,0.513,0.513,0.118,0.118
10,0.282,0.282,0.194,0.194
10,0.023,0.023,0.583,0.583
10,0.196,0.196,0.244,0.244
10,0.067,0.067,0.407,0.407
10,0.674,0.674,0.085,0.085
10,0.149,0.149,0.285,0.285
10,0.829,0.829,0.059,0.059
10,0.787,0.787,0.066,0.066
10,0.892,0.892,0.049,0.049
10,0.510,0.510,0.118,0.118
10,0.625,0.626,0.094,0.094
10,0.550,0.551,0.109,0.109
10,0.628,0.628,0.093,0.093
10,0.459,0.459,0.131,0.131
10,0.847,0.847,0.057,0.057
10,0.968,0.968,0.034,0.034
10,0.843,0.843,0.057,0.057
10,0.716,0.716,0.078,0.078
10,0.085,0.085,0.371,0.371
10,0.884,0.884,0.050,0.050
10,0.243,0.243,0.215,0.215
10,0.708,0.708,0.079,0.079
10,0.128,0.128,0.308,0.308
10,0.195,0.195,0.246,0.246
10,0.953,0.953,0.038,0.038
10,0.471,0.471,0.128,0.128
10,0.319,0.319,0.177,0.177
10,0.848,0.848,0.056,0.056
10,0.997,0.997,0.022,0.022
10,0.788,0.788,0.066,0.066
10,0.244,0.244,0.214,0.214
10,0.584,0.584,0.102,0.102
10,0.615,0.615,0.096,0.096
10,0.965,0.965,0.035,0.035
10,0.304,0.304,0.184,0.184
10,0.411,0.411,0.145,0.145
10,0.644,0.644,0.090,0.090
10,0.569,0.569,0.105,0.105
10,0.873,0.873,0.052,0.052
10,0.988,0.988,0.027,0.027
10,0.007,0.007,0.774,0.774
10,0.958,0.958,0.036,0.036
10,0.223,0.223,0.226,0.226
10,0.209,0.209,0.236,0.236
10,0.664,0.664,0.087,0.087
10,0.432,0.432,0.139,0.139
10,0.823,0.823,0.060,0.060
10,0.445,0.445,0.135,0.135
10,0.486,0.486,0.124,0.124
10,0.614,0.614,0.096,0.096
10,0.072,0.072,0.396,0.396
10,0.930,0.930,0.042,0.042
10,0.205,0.205,0.239,0.239
10,0.494,0.494,0.122,0.122
10,0.424,0.424,0.141,0.141
10,0.079,0.079,0.381,0.381
10,0.530,0.530,0.114,0.114
10,0.455,0.455,0.132,0.132
10,0.095,0.095,0.353,0.353
10,0.230,0.230,0.222,0.222
10,0.703,0.703,0.080,0.080
10,0.438,0.438,0.137,0.137
10,0.885,0.885,0.050,0.050
10,0.112,0.112,0.328,0.328
10,0.413,0.413,0.144,0.144
10,0.642,0.642,0.091,0.091
10,0.094,0.094,0.354,0.354
10,0.759,0.759,0.071,0.071
10,0.022,0.022,0.589,0.589
10,0.011,0.011,0.698,0.698
10,0.609,0.609,0.097,0.097
10,0.928,0.928,0.043,0.043
10,0.223,0.223,0.226,0.226
10,0.313,0.313,0.180,0.180
10,0.899,0.899,0.048,0.048
10,0.011,0.011,0.698,0.698
10,0.243,0.243,0.214,0.214
10,0.188,0.188,0.251,0.251
10,0.498,0.498,0.121,0.121
10,0.592,0.592,0.100,0.100
10,0.832,0.832,0.059,0.059
10,0.426,0.426,0.140,0.140
10,0.316,0.316,0.179,0.179
10,0.083,0.083,0.373,0.373
10,0.213,0.213,0.233,0.233
10,0.790,0.790,0.066,0.066
10,0.868,0.868,0.053,0.053
10,0.335,0.335,0.171,0.171
10,0.061,0.061,0.424,0.424
10,0.512,0.512,0.118,0.118
10,0.192,0.192,0.248,0.248
10,0.700,0.700,0.081,0.081
10,0.246,0.246,0.213,0.213
10,0.565,0.565,0.106,0.106
10,0.864,0.864,0.054,0.054
10,0.199,0.199,0.242,0.242
10,0.878,0.878,0.052,0.052
10,0.585,0.585,0.102,0.102
10,0.346,0.346,0.167,0.167
10,0.132,0.132,0.303,0.303
10,0.555,0.555,0.108,0.108
10,0.023,0.023,0.582,0.582
10,0.186,0.186,0.252,0.252
10,0.882,0.882,0.051,0.051
10,0.103,0.103,0.341,0.341
10,0.338,0.338,0.170,0.170
10,0.740,0.740,0.074,0.074
10,0.003,0.003,0.918,0.918
10,0.707,0.707,0.079,0.079
10,0.382,0.382,0.154,0.154
10,0.672,0.672,0.085,0.085
10,0.714,0.714,0.078,0.078
10,0.663,0.663,0.087,0.087
10,0.238,0.238,0.217,0.217
10,0.935,0.935,0.041,0.041
10,0.561,0.561,0.107,0.107
10,0.192,0.192,0.248,0.248
10,0.300,0.300,0.186,0.186
10,0.009,0.009,0.727,0.727
10,0.441,0.441,0.136,0.136
10,0.167,0.167,0.268,0.268
10,0.870,0.870,0.053,0.053
10,0.187,0.187,0.251,0.251
10,0.980,0.980,0.030,0.030
10,0.489,0.489,0.123,0.123
10,0.117,0.117,0.321,0.321
10,0.641,0.641,0.091,0.091
10,0.226,0.226,0.224,0.224
10,0.457,0.457,0.132,0.132
10,0.542,0.542,0.111,0.111
10,0.364,0.364,0.160,0.160
10,0.998,0.998,0.021,0.021
10,0.166,0.166,0.269,0.269
10,0.532,0.532,0.113,0.113
10,0.891,0.891,0.049,0.049
10,0.349,0.349,0.166,0.166
10,0.109,0.109,0.331,0.331
10,0.183,0.183,0.254,0.254
10,0.100,0.100,0.346,0.346
10,0.124,0.124,0.313,0.313
10,0.155,0.155,0.279,0.279
10,0.912,0.912,0.046,0.046
10,0.200,0.200,0.242,0.242
10,0.207,0.207,0.237,0.237
10,0.643,0.643,0.091,0.091
10,0.318,0.318,0.178,0.178
10,0.301,0.301,0.185,0.185
10,0.851,0.851,0.056,0.056
10,0.035,0.035,0.510,0.510
10,0.985,0.985,0.029,0.029
10,0.860,0.860,0.054,0.054
10,0.016,0.016,0.639,0.639
10,0.154,0.154,0.280,0.280
10,0.872,0.872,0.052,0.052
10,0.518,0.518,0.116,0.116
10,0.171,0.171,0.264,0.264
10,0.925,0.925,0.043,0.043
10,0.648,0.648,0.090,0.090
10,0.711,0.711,0.079,0.079
10,0.286,0.286,0.192,0.192
10,0.802,0.802,0.064,0.064
10,0.424,0.424,0.141,0.141
10,0.658,0.658,0.088,0.088
10,0.028,0.028,0.546,0.546
10,0.520,0.520,0.116,0.116
10,0.895,0.895,0.049,0.049
10,0.684,0.684,0.083,0.083
10,0.185,0.185,0.253,0.253
10,0.503,0.503,0.120,0.120
10,0.661,0.661,0.087,0.087
10,0.395,0.395,0.150,0.150
10,0.006,0.006,0.810,0.810
10,0.249,0.249,0.211,0.211
10,0.093,0.093,0.356,0.356
10,0.016,0.016,0.638,0.638
10,0.167,0.167,0.268,0.268
10,0.950,0.950,0.038,0.038
10,0.620,0.620,0.095,0.095
10,0.604,0.604,0.098,0.098
10,0.139,0.139,0.295,0.295
10,0.848,0.848,0.056,0.056
10,0.545,0.545,0.110,0.110
10,0.411,0.411,0.145,0.145
10,0.968,0.968,0.034,0.034
10,0.728,0.728,0.076,0.076
10,0.461,0.461,0.131,0.131
10,0.936,0.936,0.041,0.041
10,0.609,0.609,0.097,0.097
10,0.597,0.597,0.099,0.099
10,0.358,0.358,0.162,0.162
10,0.089,0.089,0.363,0.363
10,0.562,0.562,0.107,0.107
10,0.812,0.812,0.062,0.062
10,0.834,0.834,0.059,0.059
10,0.010,0.010,0.723,0.723
10,0.113,0.113,0.326,0.326
10,0.747,0.747,0.073,0.073
10,0.289,0.289,0.191,0.191
10,0.186,0.186,0.252,0.252
10,0.611,0.611,0.097,0.097
10,0.695,0.695,0.081,0.081
10,0.874,0.874,0.052,0.052
10,0.385,0.385,0.153,0.153
10,0.803,0.803,0.064,0.064
10,0.125,0.125,0.311,0.311
10,0.200,0.200,0.242,0.242
10,0.933,0.933,0.042,0.042
10,0.803,0.803,0.063,0.063
10,0.442,0.442,0.136,0.136
10,0.589,0.589,0.101,0.101
10,0.986,0.986,0.028,0.028
10,0.172,0.172,0.264,0.264
10,0.145,0.145,0.288,0.288
10,0.802,0.802,0.064,0.064
10,0.467,0.467,0.129,0.129
10,0.093,0.093,0.357,0.357
10,0.558,0.558,0.108,0.108
10,0.163,0.163,0.271,0.271
10,0.309,0.309,0.182,0.182
10,0.399,0.399,0.149,0.149
10,0.048,0.048,0.460,0.460
10,0.001,0.002,1.162,1.162
10,0.413,0.413,0.144,0.144
10,0.239,0.239,0.217,0.217
10,0.228,0.228,0.223,0.223
10,0.669,0.669,0.086,0.086
10,0.302,0.302,0.185,0.185
10,0.702,0.702,0.080,0.080
10,0.624,0.624,0.094,0.094
10,0.372,0.372,0.158,0.158
10,0.905,0.905,0.047,0.047
10,0.381,0.381,0.154,0.154
10,0.975,0.975,0.032,0.032
10,0.078,0.078,0.383,0.383
10,0.643,0.643,0.091,0.091
10,0.851,0.851,0.056,0.056
10,0.096,0.096,0.352,0.352
10,0.076,0.076,0.388,0.388
10,0.467,0.467,0.129,0.129
10,0.729,0.729,0.076,0.076
10,0.239,0.239,0.217,0.217
10,0.167,0.167,0.267,0.267
10,0.935,0.934,0.041,0.041
10,0.090,0.090,0.361,0.361
10,0.262,0.262,0.204,0.204
10,0.235,0.235,0.219,0.219
10,0.306,0.306,0.183,0.183
10,0.324,0.324,0.175,0.175
10,0.305,0.305,0.183,0.183
10,0.375,0.375,0.156,0.156
10,0.819,0.819,0.061,0.061
10,0.181,0.181,0.256,0.256
10,0.074,0.074,0.392,0.392
10,0.548,0.548,0.110,0.110
10,0.167,0.167,0.268,0.268
10,0.537,0.537,0.112,0.112
10,0.624,0.624,0.094,0.094
10,0.559,0.559,0.107,0.107
10,0.212,0.212,0.234,0.234
10,0.893,0.893,0.049,0.049
10,0.462,0.462,0.130,0.130
10,0.267,0.267,0.201,0.201
10,0.731,0.731,0.075,0.075
10,0.656,0.656,0.088,0.088
10,0.314,0.314,0.180,0.180
10,0.462,0.462,0.130,0.130
10,0.858,0.858,0.055,0.055
10,0.968,0.968,0.034,0.034
10,0.670,0.670,0.086,0.086
10,0.979,0.979,0.031,0.031
10,0.897,0.897,0.048,0.048
10,0.882,0.882,0.051,0.051
10,0.679,0.679,0.084,0.084
10,0.400,0.400,0.148,0.148
10,0.542,0.542,0.111,0.111
10,0.902,0.902,0.047,0.047
10,0.828,0.828,0.060,0.060
10,0.434,0.434,0.138,0.138
10,0.073,0.073,0.395,0.395
10,0.670,0.670,0.086,0.086
10,0.261,0.261,0.204,0.204
10,0.375,0.375,0.157,0.157
10,0.201,0.201,0.241,0.241
10,0.338,0.338,0.170,0.170
10,0.852,0.852,0.056,0.056
10,0.264,0.264,0.203,0.203
10,0.053,0.053,0.446,0.446
10,0.004,0.004,0.860,0.860
10,0.238,0.238,0.217,0.217
10,0.031,0.031,0.531,0.531
10,0.567,0.567,0.106,0.106
10,0.627,0.627,0.094,0.094
12,0.827,0.829,0.059,0.059
12,0.572,0.574,0.104,0.104
12,0.873,0.875,0.052,0.052
12,0.481,0.483,0.125,0.125
12,0.382,0.383,0.154,0.154
12,0.162,0.162,0.272,0.272
12,0.080,0.079,0.381,0.381
12,0.036,0.035,0.511,0.511
12,0.873,0.874,0.052,0.052
12,0.859,0.861,0.054,0.054
12,0.410,0.411,0.145,0.145
12,0.841,0.842,0.057,0.057
12,0.279,0.279,0.195,0.195
12,0.983,0.984,0.029,0.029
12,0.177,0.177,0.259,0.259
12,0.809,0.810,0.062,0.062
12,0.762,0.764,0.070,0.070
12,0.214,0.214,0.232,0.232
12,0.736,0.738,0.074,0.074
12,0.173,0.173,0.263,0.263
12,0.496,0.498,0.121,0.121
12,0.963,0.964,0.035,0.035
12,0.105,0.105,0.338,0.338
12,0.850,0.852,0.056,0.056
12,0.466,0.467,0.129,0.129
12,0.146,0.146,0.287,0.287
12,0.055,0.055,0.440,0.440
12,0.212,0.213,0.233,0.233
12,0.679,0.681,0.084,0.084
12,0.664,0.665,0.087,0.087
12,0.206,0.206,0.237,0.237
12,0.597,0.598,0.099,0.099
12,0.845,0.847,0.057,0.057
12,0.706,0.708,0.079,0.079
12,0.382,0.382,0.154,0.154
12,0.517,0.518,0.116,0.116
12,0.287,0.287,0.191,0.191
12,0.818,0.820,0.061,0.061
12,0.695,0.697,0.081,0.081
12,0.558,0.559,0.107,0.107
12,0.978,0.979,0.031,0.031
12,0.755,0.757,0.071,0.071
12,0.869,0.871,0.053,0.053
12,0.148,0.148,0.286,0.286
12,0.899,0.900,0.048,0.048
12,0.746,0.748,0.072,0.072
12,0.805,0.807,0.063,0.063
12,0.215,0.216,0.231,0.231
12,0.049,0.049,0.458,0.458
12,0.983,0.984,0.029,0.029
12,0.966,0.967,0.034,0.034
12,0.503,0.504,0.120,0.120
12,0.787,0.789,0.066,0.066
12,0.650,0.652,0.089,0.089
12,0.558,0.560,0.107,0.107
12,0.640,0.641,0.091,0.091
12,0.464,0.465,0.129,0.129
12,0.515,0.516,0.117,0.117
12,0.103,0.103,0.341,0.341
12,0.584,0.585,0.102,0.102
12,0.059,0.059,0.428,0.428
12,0.944,0.945,0.039,0.039
12,0.244,0.244,0.214,0.214
12,0.712,0.714,0.078,0.078
12,0.308,0.309,0.182,0.182
12,0.097,0.096,0.351,0.351
12,0.638,0.640,0.091,0.091
12,0.942,0.943,0.040,0.040
12,0.830,0.832,0.059,0.059
12,0.943,0.944,0.040,0.040
12,0.740,0.742,0.073,0.073
12,0.889,0.891,0.049,0.049
12,0.692,0.693,0.082,0.082
12,0.128,0.128,0.308,0.308
12,0.481,0.482,0.125,0.125
12,0.421,0.422,0.141,0.141
12,0.329,0.330,0.173,0.173
12,0.666,0.667,0.086,0.086
12,0.025,0.025,0.566,0.566
12,0.457,0.458,0.131,0.131
12,0.329,0.329,0.173,0.173
12,0.145,0.145,0.289,0.289
12,0.339,0.340,0.169,0.169
12,0.094,0.094,0.355,0.355
12,0.626,0.628,0.093,0.093
12,0.628,0.630,0.093,0.093
12,0.386,0.386,0.153,0.153
12,0.865,0.867,0.053,0.053
12,0.240,0.241,0.216,0.216
12,0.085,0.084,0.372,0.372
12,0.688,0.689,0.082,0.082
12,0.868,0.870,0.053,0.053
12,0.445,0.446,0.135,0.135
12,0.831,0.833,0.059,0.059
12,0.435,0.436,0.138,0.138
12,0.449,0.450,0.134,0.134
12,0.503,0.505,0.120,0.120
12,0.262,0.262,0.204,0.204
12,0.622,0.624,0.094,0.094
12,0.021,0.020,0.601,0.601
12,0.312,0.312,0.180,0.180
12,0.513,0.515,0.117,0.117
12,0.286,0.287,0.192,0.192
12,0.051,0.051,0.453,0.453
12,0.110,0.110,0.331,0.331
12,0.636,0.638,0.092,0.092
12,0.468,0.469,0.129,0.129
12,0.866,0.868,0.053,0.053
12,0.728,0.730,0.075,0.075
12,0.696,0.698,0.081,0.081
12,0.138,0.138,0.296,0.296
12,0.444,0.445,0.135,0.135
12,0.235,0.235,0.219,0.219
12,0.350,0.350,0.165,0.165
12,0.121,0.121,0.316,0.316
12,0.982,0.982,0.030,0.030
12,0.126,0.126,0.310,0.310
12,0.956,0.957,0.037,0.037
12,0.683,0.684,0.083,0.083
12,0.406,0.406,0.146,0.146
12,0.559,0.560,0.107,0.107
12,0.374,0.374,0.157,0.157
12,0.837,0.839,0.058,0.058
12,0.936,0.938,0.041,0.041
12,0.173,0.173,0.262,0.262
12,0.550,0.551,0.109,0.109
12,0.990,0.991,0.026,0.026
12,0.518,0.519,0.116,0.116
12,0.381,0.381,0.154,0.154
12,0.246,0.246,0.212,0.212
12,0.019,0.018,0.618,0.618
12,0.333,0.334,0.172,0.172
12,0.625,0.626,0.094,0.094
12,0.302,0.303,0.185,0.185
12,0.263,0.263,0.203,0.203
12,0.285,0.286,0.192,0.192
12,0.032,0.032,0.529,0.529
12,0.703,0.705,0.080,0.080
12,0.028,0.028,0.549,0.549
12,0.177,0.177,0.259,0.259
12,0.128,0.128,0.307,0.307
12,0.496,0.498,0.121,0.121
12,0.217,0.217,0.230,0.230
12,0.808,0.810,0.062,0.062
12,0.830,0.831,0.059,0.059
12,0.033,0.033,0.524,0.524
12,0.014,0.013,0.667,0.667
12,0.516,0.517,0.117,0.117
12,0.246,0.247,0.212,0.212
12,0.792,0.794,0.065,0.065
12,0.969,0.970,0.033,0.033
12,0.166,0.166,0.268,0.268
12,0.240,0.240,0.216,0.216
12,0.119,0.119,0.318,0.318
12,0.187,0.187,0.252,0.252
12,0.281,0.282,0.194,0.194
12,0.742,0.744,0.073,0.073
12,0.970,0.971,0.033,0.033
12,0.699,0.701,0.080,0.080
12,0.968,0.969,0.034,0.034
12,0.670,0.672,0.085,0.085
12,0.559,0.561,0.107,0.107
12,0.892,0.894,0.049,0.049
12,0.863,0.865,0.054,0.054
12,0.975,0.976,0.032,0.032
12,0.060,0.060,0.426,0.426
12,0.578,0.579,0.103,0.103
12,0.767,0.769,0.069,0.069
12,0.518,0.519,0.116,0.116
12,0.815,0.816,0.061,0.061
12,0.175,0.176,0.261,0.261
12,0.560,0.562,0.107,0.107
12,0.245,0.245,0.213,0.213
12,0.869,0.871,0.053,0.053
12,0.492,0.493,0.122,0.122
12,0.349,0.350,0.165,0.165
12,0.300,0.300,0.186,0.186
12,0.328,0.329,0.173,0.173
12,0.953,0.954,0.037,0.037
12,0.620,0.621,0.095,0.095
12,0.019,0.019,0.615,0.615
12,0.295,0.295,0.188,0.188
12,0.264,0.264,0.203,0.203
12,0.479,0.480,0.126,0.126
12,0.350,0.351,0.165,0.165
12,0.492,0.493,0.122,0.122
12,0.057,0.057,0.433,0.433
12,0.148,0.148,0.286,0.286
12,0.797,0.799,0.064,0.064
12,0.259,0.260,0.205,0.205
12,0.734,0.736,0.074,0.074
12,0.483,0.484,0.125,0.125
12,0.405,0.406,0.146,0.146
12,0.140,0.140,0.294,0.294
12,0.750,0.752,0.072,0.072
12,0.109,0.108,0.333,0.333
12,0.055,0.054,0.441,0.441
12,0.969,0.970,0.033,0.033
12,0.273,0.273,0.198,0.198
12,0.475,0.476,0.127,0.127
12,0.053,0.053,0.445,0.445
12,0.892,0.893,0.049,0.049
12,0.487,0.488,0.124,0.124
12,0.743,0.745,0.073,0.073
12,0.035,0.035,0.512,0.512
12,0.843,0.845,0.057,0.057
12,0.989,0.989,0.027,0.027
12,0.624,0.626,0.094,0.094
12,0.511,0.512,0.118,0.118
12,0.025,0.024,0.571,0.571
12,0.154,0.153,0.280,0.280
12,0.058,0.058,0.431,0.431
12,0.220,0.220,0.228,0.228
12,0.180,0.180,0.257,0.257
12,0.610,0.611,0.097,0.097
12,0.815,0.816,0.061,0.061
12,0.815,0.817,0.061,0.061
12,0.341,0.342,0.168,0.168
12,0.356,0.357,0.163,0.163
12,0.572,0.573,0.104,0.104
12,0.483,0.484,0.125,0.125
12,0.737,0.738,0.074,0.074
12,0.729,0.731,0.075,0.075
12,0.991,0.991,0.026,0.026
12,0.864,0.866,0.053,0.053
12,0.649,0.651,0.089,0.089
12,0.023,0.023,0.580,0.580
12,0.860,0.862,0.054,0.054
12,0.572,0.573,0.104,0.104
12,0.682,0.684,0.083,0.083
12,0.163,0.163,0.272,0.272
12,0.154,0.154,0.280,0.280
12,0.957,0.958,0.037,0.037
12,0.608,0.609,0.097,0.097
12,0.423,0.424,0.141,0.141
12,0.505,0.507,0.119,0.119
12,0.976,0.976,0.032,0.032
12,0.412,0.413,0.144,0.144
12,0.328,0.329,0.174,0.174
12,0.738,0.739,0.074,0.074
12,0.424,0.425,0.141,0.141
12,0.553,0.554,0.108,0.108
12,0.637,0.638,0.091,0.091
12,0.152,0.152,0.282,0.282
12,0.349,0.349,0.166,0.166
12,0.510,0.511,0.118,0.118
12,0.828,0.830,0.059,0.059
12,0.970,0.971,0.033,0.033
12,0.037,0.037,0.503,0.503
12,0.905,0.906,0.047,0.047
12,0.563,0.565,0.106,0.106
12,0.341,0.342,0.168,0.168
12,0.630,0.632,0.093,0.093
12,0.639,0.641,0.091,0.091
12,0.487,0.488,0.124,0.124
12,0.528,0.529,0.114,0.114
12,0.433,0.434,0.138,0.138
12,0.663,0.664,0.087,0.087
12,0.019,0.019,0.612,0.612
12,0.565,0.567,0.106,0.106
12,0.292,0.293,0.189,0.189
12,0.481,0.482,0.125,0.125
12,0.579,0.581,0.103,0.103
12,0.132,0.132,0.303,0.303
12,0.197,0.197,0.244,0.244
12,0.288,0.288,0.191,0.191
12,0.177,0.177,0.260,0.260
12,0.112,0.112,0.327,0.327
12,0.827,0.828,0.059,0.059
12,0.614,0.615,0.096,0.096
12,0.885,0.887,0.050,0.050
12,0.040,0.040,0.490,0.490
12,0.278,0.278,0.196,0.196
12,0.830,0.832,0.059,0.059
12,0.062,0.062,0.420,0.420
12,1.000,1.000,0.016,0.016
12,0.019,0.019,0.612,0.612
12,0.019,0.019,0.612,0.612
12,0.261,0.261,0.205,0.205
12,0.808,0.810,0.062,0.062
12,0.248,0.248,0.211,0.211
12,0.323,0.323,0.176,0.176
12,0.725,0.727,0.076,0.076
12,0.037,0.036,0.507,0.507
12,0.309,0.310,0.181,0.181
12,0.274,0.275,0.197,0.197
12,0.825,0.827,0.060,0.060
12,0.791,0.793,0.065,0.065
12,0.822,0.824,0.060,0.060
12,0.226,0.226,0.224,0.224
12,0.346,0.347,0.167,0.167
12,0.048,0.047,0.463,0.463
12,0.123,0.123,0.313,0.313
12,0.432,0.433,0.139,0.139
12,0.985,0.986,0.028,0.028
12,0.053,0.053,0.446,0.446
12,0.097,0.097,0.350,0.350
12,0.798,0.800,0.064,0.064
12,0.232,0.232,0.221,0.221
12,0.561,0.562,0.107,0.107
12,0.226,0.226,0.224,0.224
12,0.477,0.478,0.126,0.126
12,0.875,0.877,0.052,0.052
12,0.675,0.677,0.084,0.084
12,0.703,0.705,0.080,0.080
12,0.374,0.375,0.157,0.157
12,0.594,0.595,0.100,0.100
12,0.510,0.512,0.118,0.118
12,0.828,0.830,0.059,0.059
12,0.006,0.006,0.802,0.802
12,0.064,0.064,0.415,0.415
12,0.911,0.913,0.046,0.046
12,0.557,0.558,0.107,0.107
12,0.411,0.412,0.144,0.144
12,0.358,0.359,0.162,0.162
12,0.000,0.002,1.227,1.227
12,0.890,0.892,0.049,0.049
12,0.369,0.370,0.158,0.158
12,0.765,0.767,0.069,0.069
12,0.397,0.398,0.149,0.149
12,0.965,0.966,0.034,0.034
12,0.472,0.473,0.127,0.127
12,0.993,0.993,0.025,0.025
12,0.784,0.786,0.066,0.066
12,0.483,0.484,0.125,0.125
12,0.565,0.567,0.106,0.106
12,0.034,0.033,0.519,0.519
12,0.414,0.415,0.144,0.144
12,0.339,0.340,0.169,0.169
12,0.911,0.913,0.046,0.046
12,0.380,0.381,0.155,0.155
12,0.920,0.922,0.044,0.044
12,0.797,0.799,0.064,0.064
12,0.211,0.211,0.234,0.234
12,0.889,0.891,0.049,0.049
12,0.324,0.325,0.175,0.175
12,0.667,0.668,0.086,0.086
12,0.511,0.512,0.118,0.118
12,0.436,0.437,0.137,0.137
12,0.974,0.975,0.032,0.032
12,0.412,0.413,0.144,0.144
12,0.766,0.768,0.069,0.069
12,0.769,0.771,0.069,0.069
12,0.775,0.777,0.068,0.068
12,0.307,0.308,0.182,0.182
12,0.770,0.772,0.069,0.069
12,0.088,0.087,0.366,0.366
12,0.606,0.608,0.097,0.097
12,0.221,0.222,0.227,0.227
12,0.941,0.942,0.040,0.040
12,0.376,0.377,0.156,0.156
12,0.528,0.529,0.114,0.114
12,0.716,0.717,0.077,0.077
12,0.241,0.242,0.215,0.215
12,0.624,0.625,0.094,0.094
12,0.723,0.724,0.076,0.076
12,0.053,0.053,0.446,0.446
12,0.935,0.937,0.041,0.041
12,0.842,0.844,0.057,0.057
12,0.014,0.014,0.661,0.661
12,0.105,0.105,0.338,0.338
12,0.990,0.991,0.026,0.026
12,0.467,0.468,0.129,0.129
12,0.073,0.072,0.396,0.396
12,0.524,0.526,0.115,0.115
12,0.723,0.724,0.076,0.076
12,0.704,0.706,0.079,0.079
12,0.197,0.198,0.244,0.244
12,0.505,0.506,0.119,0.119
12,0.402,0.403,0.147,0.147
12,0.870,0.872,0.053,0.053
12,0.048,0.048,0.462,0.462
12,0.719,0.720,0.077,0.077
12,0.902,0.904,0.047,0.047
12,0.412,0.413,0.144,0.144
12,0.314,0.315,0.179,0.179
12,0.339,0.339,0.169,0.169
12,0.224,0.224,0.226,0.226
12,0.602,0.604,0.098,0.098
12,0.040,0.039,0.493,0.493
12,0.280,0.280,0.195,0.195
12,0.360,0.360,0.162,0.162
12,0.029,0.029,0.545,0.545
12,0.124,0.124,0.313,0.313
12,0.696,0.698,0.081,0.081
12,0.559,0.561,0.107,0.107
12,0.505,0.506,0.119,0.119
12,0.158,0.157,0.276,0.276
12,0.905,0.907,0.047,0.047
12,0.695,0.697,0.081,0.081
12,0.688,0.690,0.082,0.082
12,0.983,0.984,0.029,0.029
12,0.306,0.307,0.183,0.183
12,0.304,0.304,0.184,0.184
12,0.714,0.716,0.078,0.078
12,0.380,0.380,0.155,0.155
12,0.751,0.752,0.072,0.072
12,0.149,0.149,0.285,0.285
12,0.148,0.148,0.285,0.285
12,0.146,0.146,0.288,0.288
12,0.545,0.546,0.110,0.110
12,0.733,0.735,0.075,0.075
12,0.007,0.006,0.789,0.789
12,0.071,0.070,0.400,0.400
12,0.954,0.956,0.037,0.037
12,0.746,0.748,0.072,0.072
12,0.076,0.076,0.388,0.388
12,0.426,0.427,0.140,0.140
12,0.870,0.872,0.052,0.052
12,0.526,0.528,0.114,0.114
12,0.644,0.646,0.090,0.090
12,0.971,0.972,0.033,0.033
12,0.164,0.164,0.271,0.271
12,0.393,0.394,0.150,0.150
12,0.856,0.858,0.055,0.055
12,0.904,0.906,0.047,0.047
12,0.418,0.419,0.143,0.143
12,0.823,0.825,0.060,0.060
12,0.840,0.842,0.057,0.057
12,0.031,0.031,0.534,0.534
12,0.182,0.182,0.255,0.255
12,0.792,0.793,0.065,0.065
12,0.252,0.253,0.209,0.209
12,0.069,0.069,0.404,0.404
12,0.463,0.464,0.130,0.130
12,0.057,0.057,0.433,0.433
12,0.147,0.147,0.286,0.286
12,0.471,0.473,0.128,0.128
12,0.052,0.052,0.448,0.448
12,0.001,0.002,1.193,1.193
12,0.164,0.164,0.270,0.270
12,0.522,0.523,0.115,0.115
12,0.625,0.626,0.094,0.094
12,0.946,0.947,0.039,0.039
12,0.511,0.512,0.118,0.118
12,0.517,0.518,0.116,0.116
12,0.960,0.962,0.036,0.036
12,0.421,0.422,0.141,0.141
12,0.657,0.658,0.088,0.088
12,0.529,0.530,0.114,0.114
12,0.950,0.951,0.038,0.038
12,0.025,0.025,0.569,0.569
12,0.329,0.329,0.173,0.173
12,0.785,0.787,0.066,0.066
12,0.235,0.235,0.219,0.219
12,0.167,0.167,0.268,0.268
12,0.482,0.484,0.125,0.125
12,0.652,0.653,0.089,0.089
12,0.058,0.058,0.431,0.431
12,0.179,0.179,0.258,0.258
12,0.885,0.887,0.050,0.050
12,0.065,0.064,0.414,0.414
12,0.277,0.277,0.196,0.196
12,0.153,0.153,0.281,0.281
12,0.660,0.661,0.087,0.087
12,0.245,0.245,0.213,0.213
12,0.522,0.524,0.115,0.115
12,0.932,0.933,0.042,0.042
12,0.768,0.769,0.069,0.069
12,0.637,0.639,0.091,0.091
12,0.119,0.119,0.318,0.318
12,0.690,0.692,0.082,0.082
12,0.261,0.262,0.204,0.204
12,0.750,0.752,0.072,0.072
12,0.424,0.425,0.141,0.141
12,0.482,0.484,0.125,0.125
12,0.595,0.597,0.099,0.099
12,0.432,0.433,0.138,0.138
12,0.242,0.242,0.215,0.215
12,0.471,0.472,0.128,0.128
12,0.945,0.946,0.039,0.039
12,0.721,0.722,0.077,0.077
12,0.310,0.311,0.181,0.181
12,0.562,0.564,0.106,0.106
12,0.858,0.860,0.054,0.054
12,0.916,0.918,0.045,0.045
12,0.470,0.471,0.128,0.128
12,0.967,0.969,0.034,0.034
12,0.964,0.965,0.035,0.035
12,0.361,0.362,0.161,0.161
12,0.528,0.530,0.114,0.114
12,0.772,0.774,0.068,0.068
12,0.579,0.580,0.103,0.103
12,0.869,0.871,0.053,0.053
12,0.400,0.401,0.148,0.148
12,0.350,0.350,0.165,0.165
12,0.064,0.064,0.415,0.415
12,0.771,0.773,0.068,0.068
12,0.143,0.143,0.290,0.290
12,0.382,0.383,0.154,0.154
12,0.077,0.077,0.386,0.386
12,0.740,0.742,0.073,0.073
12,0.906,0.907,0.047,0.047
12,0.104,0.103,0.340,0.340
12,0.019,0.019,0.611,0.611
12,0.032,0.031,0.530,0.530
12,0.478,0.479,0.126,0.126
12,0.175,0.175,0.261,0.261
12,0.959,0.960,0.036,0.036
12,0.405,0.406,0.147,0.147
20,0.194,0.194,0.246,0.246
20,0.859,0.859,0.054,0.054
20,0.352,0.352,0.164,0.164
20,0.590,0.590,0.100,0.100
20,0.745,0.745,0.072,0.072
20,0.842,0.842,0.056,0.056
20,0.115,0.115,0.324,0.324
20,0.074,0.074,0.395,0.395
20,0.788,0.789,0.065,0.065
20,0.988,0.988,0.027,0.027
20,0.158,0.158,0.276,0.276
20,0.439,0.439,0.136,0.136
20,0.801,0.801,0.063,0.063
20,0.677,0.677,0.084,0.084
20,0.197,0.197,0.244,0.244
20,0.580,0.580,0.102,0.102
20,0.613,0.613,0.095,0.095
20,0.631,0.631,0.092,0.092
20,0.956,0.956,0.036,0.036
20,0.667,0.667,0.085,0.085
20,0.651,0.651,0.088,0.088
20,0.406,0.406,0.145,0.145
20,0.035,0.035,0.516,0.516
20,0.090,0.090,0.362,0.362
20,0.329,0.329,0.173,0.173
20,0.290,0.290,0.189,0.189
20,0.262,0.262,0.203,0.203
20,0.632,0.632,0.092,0.092
20,0.693,0.693,0.081,0.081
20,0.278,0.278,0.195,0.195
20,0.085,0.085,0.372,0.372
20,0.046,0.046,0.472,0.472
20,0.448,0.448,0.133,0.133
20,0.825,0.825,0.059,0.059
20,0.609,0.609,0.096,0.096
20,0.309,0.309,0.181,0.181
20,0.394,0.394,0.149,0.149
20,0.338,0.338,0.169,0.169
20,0.391,0.391,0.150,0.150
20,0.440,0.440,0.136,0.136
20,0.974,0.974,0.031,0.031
20,0.690,0.690,0.081,0.081
20,0.670,0.670,0.085,0.085
20,0.111,0.111,0.330,0.330
20,0.421,0.421,0.141,0.141
20,0.891,0.891,0.048,0.048
20,0.886,0.886,0.049,0.049
20,0.376,0.376,0.155,0.155
20,0.559,0.559,0.106,0.106
20,0.969,0.969,0.033,0.033
20,0.504,0.504,0.119,0.119
20,0.134,0.134,0.301,0.301
20,0.300,0.300,0.185,0.185
20,0.440,0.440,0.135,0.135
20,0.969,0.969,0.033,0.033
20,0.714,0.714,0.077,0.077
20,0.884,0.884,0.050,0.050
20,0.449,0.449,0.133,0.133
20,0.692,0.692,0.081,0.081
20,0.617,0.617,0.095,0.095
20,0.040,0.040,0.493,0.493
20,0.943,0.943,0.039,0.039
20,0.527,0.527,0.113,0.113
20,0.237,0.237,0.217,0.217
20,0.337,0.337,0.170,0.170
20,0.015,0.015,0.656,0.656
20,0.376,0.376,0.155,0.155
20,0.587,0.587,0.100,0.100
20,0.777,0.777,0.067,0.067
20,0.809,0.809,0.062,0.062
20,0.532,0.532,0.112,0.112
20,0.821,0.821,0.060,0.060
20,0.131,0.131,0.305,0.305
20,0.215,0.215,0.231,0.231
20,0.275,0.275,0.197,0.197
20,0.706,0.706,0.079,0.079
20,0.028,0.028,0.552,0.552
20,0.297,0.297,0.186,0.186
20,0.464,0.464,0.129,0.129
20,0.465,0.465,0.129,0.129
20,0.802,0.802,0.063,0.063
20,0.089,0.089,0.365,0.365
20,0.071,0.071,0.400,0.400
20,0.196,0.196,0.244,0.244
20,0.395,0.395,0.149,0.149
20,0.771,0.771,0.068,0.068
20,0.314,0.314,0.179,0.179
20,0.333,0.333,0.171,0.171
20,0.636,0.636,0.091,0.091
20,0.336,0.336,0.170,0.170
20,0.629,0.629,0.092,0.092
20,0.961,0.961,0.035,0.035
20,0.534,0.534,0.112,0.112
20,0.581,0.581,0.102,0.102
20,0.470,0.470,0.127,0.127
20,0.237,0.237,0.218,0.218
20,0.778,0.778,0.067,0.067
20,0.326,0.326,0.174,0.174
20,0.591,0.591,0.100,0.100
20,0.573,0.573,0.103,0.103
20,0.643,0.643,0.090,0.090
20,0.708,0.708,0.078,0.078
20,0.329,0.329,0.173,0.173
20,0.044,0.044,0.480,0.480
20,0.059,0.059,0.430,0.430
20,0.651,0.651,0.088,0.088
20,0.074,0.074,0.394,0.394
20,0.871,0.871,0.052,0.052
20,0.994,0.994,0.023,0.023
20,0.632,0.632,0.092,0.092
20,0.270,0.270,0.199,0.199
20,0.545,0.545,0.109,0.109
20,0.237,0.237,0.218,0.218
20,0.389,0.389,0.151,0.151
20,0.086,0.086,0.369,0.369
20,0.776,0.776,0.067,0.067
20,0.733,0.733,0.074,0.074
20,0.915,0.915,0.044,0.044
20,0.649,0.649,0.089,0.089
20,0.839,0.839,0.057,0.057
20,0.175,0.175,0.261,0.261
20,0.297,0.297,0.186,0.186
20,0.855,0.855,0.054,0.054
20,0.792,0.792,0.064,0.064
20,0.180,0.180,0.256,0.256
20,0.676,0.676,0.084,0.084
20,0.864,0.864,0.053,0.053
20,0.511,0.511,0.117,0.117
20,0.765,0.765,0.069,0.069
20,0.499,0.499,0.120,0.120
20,0.113,0.113,0.327,0.327
20,0.064,0.064,0.416,0.416
20,0.191,0.191,0.248,0.248
20,0.874,0.874,0.051,0.051
20,0.730,0.730,0.074,0.074
20,0.465,0.465,0.129,0.129
20,0.142,0.142,0.292,0.292
20,0.887,0.887,0.049,0.049
20,0.066,0.066,0.412,0.412
20,0.032,0.032,0.533,0.533
20,0.594,0.594,0.099,0.099
20,0.700,0.700,0.079,0.079
20,0.235,0.235,0.218,0.218
20,0.979,0.979,0.030,0.030
20,0.252,0.252,0.209,0.209
20,0.086,0.086,0.369,0.369
20,0.020,0.020,0.612,0.612
20,0.496,0.496,0.121,0.121
20,0.203,0.203,0.239,0.239
20,0.615,0.615,0.095,0.095
20,0.570,0.570,0.104,0.104
20,0.639,0.639,0.090,0.090
20,0.603,0.603,0.097,0.097
20,0.544,0.544,0.110,0.110
20,0.337,0.337,0.170,0.170
20,0.340,0.340,0.168,0.168
20,0.963,0.963,0.034,0.034
20,0.534,0.534,0.112,0.112
20,0.464,0.464,0.129,0.129
20,0.822,0.822,0.060,0.060
20,0.300,0.300,0.185,0.185
20,0.606,0.606,0.097,0.097
20,0.813,0.813,0.061,0.061
20,0.852,0.852,0.055,0.055
20,0.975,0.974,0.031,0.031
20,0.079,0.079,0.384,0.384
20,0.617,0.617,0.095,0.095
20,0.867,0.867,0.052,0.052
20,0.955,0.955,0.036,0.036
20,0.807,0.807,0.062,0.062
20,0.202,0.202,0.240,0.240
20,0.582,0.582,0.102,0.102
20,0.063,0.063,0.421,0.421
20,0.908,0.908,0.045,0.045
20,0.316,0.316,0.178,0.178
20,0.854,0.854,0.055,0.055
20,0.498,0.498,0.120,0.120
20,0.479,0.479,0.125,0.125
20,0.937,0.937,0.040,0.040
20,0.554,0.554,0.107,0.107
20,0.004,0.004,0.878,0.878
20,0.282,0.282,0.193,0.193
20,0.416,0.416,0.143,0.143
20,0.431,0.431,0.138,0.138
20,0.739,0.739,0.073,0.073
20,0.696,0.696,0.080,0.080
20,0.110,0.110,0.332,0.332
20,0.349,0.349,0.165,0.165
20,0.340,0.340,0.168,0.168
20,0.975,0.975,0.031,0.031
20,0.850,0.850,0.055,0.055
20,0.443,0.443,0.135,0.135
20,0.845,0.845,0.056,0.056
20,0.018,0.018,0.629,0.629
20,0.925,0.925,0.042,0.042
20,0.573,0.573,0.103,0.103
20,0.010,0.010,0.726,0.726
20,0.839,0.839,0.057,0.057
20,0.293,0.293,0.188,0.188
20,0.853,0.853,0.055,0.055
20,0.578,0.578,0.102,0.102
20,0.442,0.442,0.135,0.135
20,0.487,0.487,0.123,0.123
20,0.641,0.641,0.090,0.090
20,0.003,0.003,0.956,0.956
20,0.994,0.994,0.023,0.023
20,0.739,0.739,0.073,0.073
20,0.616,0.616,0.095,0.095
20,0.925,0.925,0.042,0.042
20,0.039,0.039,0.497,0.497
20,0.020,0.020,0.608,0.608
20,0.077,0.077,0.387,0.387
20,0.642,0.642,0.090,0.090
20,0.174,0.174,0.262,0.262
20,0.701,0.701,0.079,0.079
20,0.651,0.651,0.088,0.088
20,0.924,0.924,0.043,0.043
20,0.097,0.097,0.351,0.351
20,0.164,0.164,0.271,0.271
20,0.283,0.283,0.193,0.193
20,0.733,0.733,0.074,0.074
20,0.976,0.976,0.031,0.031
20,0.926,0.926,0.042,0.042
20,0.673,0.673,0.084,0.084
20,0.787,0.787,0.065,0.065
20,0.397,0.397,0.149,0.149
20,0.083,0.083,0.376,0.376
20,0.563,0.563,0.106,0.106
20,0.261,0.261,0.204,0.204
20,0.336,0.336,0.170,0.170
20,0.168,0.168,0.267,0.267
20,0.136,0.136,0.299,0.299
20,0.978,0.978,0.030,0.030
20,0.792,0.792,0.064,0.064
20,0.218,0.218,0.229,0.229
20,0.453,0.453,0.132,0.132
20,0.548,0.548,0.109,0.109
20,0.481,0.481,0.124,0.124
20,0.407,0.407,0.145,0.145
20,0.213,0.213,0.232,0.232
20,0.224,0.224,0.225,0.225
20,0.467,0.467,0.128,0.128
20,0.734,0.734,0.074,0.074
20,0.479,0.479,0.125,0.125
20,0.412,0.412,0.144,0.144
20,0.067,0.067,0.410,0.410
20,0.999,0.999,0.018,0.018
20,0.725,0.725,0.075,0.075
20,0.899,0.899,0.047,0.047
20,0.413,0.413,0.143,0.143
20,0.258,0.258,0.206,0.206
20,0.146,0.146,0.288,0.288
20,0.196,0.196,0.245,0.245
20,0.996,0.996,0.022,0.022
20,0.473,0.473,0.126,0.126
20,0.408,0.408,0.145,0.145
20,0.210,0.210,0.235,0.235
20,0.321,0.321,0.176,0.176
20,0.014,0.014,0.667,0.667
20,0.319,0.319,0.177,0.177
20,0.360,0.360,0.161,0.161
20,0.443,0.443,0.135,0.135
20,0.890,0.890,0.049,0.049
20,0.242,0.242,0.215,0.215
20,0.094,0.094,0.357,0.357
20,0.716,0.716,0.077,0.077
20,0.530,0.530,0.113,0.113
20,0.046,0.046,0.471,0.471
20,0.875,0.875,0.051,0.051
20,0.959,0.959,0.035,0.035
20,0.941,0.941,0.039,0.039
20,0.045,0.045,0.474,0.474
20,0.459,0.459,0.130,0.130
20,0.353,0.353,0.164,0.164
20,0.190,0.190,0.249,0.249
20,0.872,0.872,0.052,0.052
20,0.151,0.151,0.283,0.283
20,0.240,0.240,0.216,0.216
20,0.873,0.873,0.051,0.051
20,0.727,0.727,0.075,0.075
20,0.970,0.970,0.033,0.033
20,0.389,0.389,0.151,0.151
20,0.957,0.957,0.036,0.036
20,0.037,0.037,0.510,0.510
20,0.564,0.564,0.105,0.105
20,0.653,0.653,0.088,0.088
20,0.755,0.755,0.070,0.070
20,0.901,0.901,0.047,0.047
20,0.773,0.773,0.067,0.067
20,0.895,0.895,0.048,0.048
20,0.215,0.215,0.231,0.231
20,0.036,0.036,0.510,0.510
20,0.383,0.383,0.153,0.153
20,0.784,0.784,0.066,0.066
20,0.897,0.897,0.047,0.047
20,0.425,0.425,0.140,0.140
20,0.158,0.158,0.276,0.276
20,0.488,0.488,0.123,0.123
20,0.841,0.841,0.057,0.057
20,0.292,0.292,0.189,0.189
20,0.093,0.093,0.357,0.357
20,0.232,0.232,0.220,0.220
20,0.725,0.725,0.075,0.075
20,0.957,0.957,0.036,0.036
20,0.772,0.772,0.068,0.068
20,0.623,0.623,0.094,0.094
20,0.712,0.712,0.078,0.078
20,0.171,0.171,0.265,0.265
20,0.993,0.993,0.024,0.024
20,0.247,0.247,0.212,0.212
20,0.257,0.257,0.206,0.206
20,0.967,0.967,0.033,0.033
20,0.448,0.448,0.133,0.133
20,0.922,0.922,0.043,0.043
20,0.369,0.369,0.158,0.158
20,0.002,0.002,0.982,0.982
20,0.821,0.821,0.060,0.060
20,0.643,0.643,0.090,0.090
20,0.911,0.911,0.045,0.045
20,0.847,0.847,0.056,0.056
20,0.121,0.121,0.317,0.317
20,0.154,0.154,0.280,0.280
20,0.885,0.885,0.049,0.049
20,0.723,0.723,0.076,0.076
20,0.599,0.599,0.098,0.098
20,0.267,0.267,0.201,0.201
20,0.008,0.008,0.778,0.778
20,0.366,0.366,0.159,0.159
20,0.203,0.203,0.240,0.240
20,0.826,0.826,0.059,0.059
20,0.059,0.059,0.430,0.430
20,0.983,0.983,0.028,0.028
20,0.958,0.958,0.036,0.036
20,0.196,0.196,0.244,0.244
20,0.591,0.591,0.100,0.100
20,0.724,0.724,0.075,0.075
20,0.389,0.389,0.151,0.151
20,0.669,0.669,0.085,0.085
20,0.338,0.338,0.169,0.169
20,0.984,0.984,0.028,0.028
20,0.745,0.745,0.072,0.072
20,0.271,0.271,0.199,0.199
20,0.085,0.085,0.372,0.372
20,0.461,0.461,0.130,0.130
20,0.156,0.156,0.278,0.278
20,0.228,0.228,0.223,0.223
20,0.804,0.804,0.062,0.062
20,0.731,0.731,0.074,0.074
20,0.142,0.142,0.292,0.292
20,0.892,0.892,0.048,0.048
20,0.054,0.054,0.447,0.447
20,0.972,0.972,0.032,0.032
20,0.772,0.772,0.068,0.068
20,0.230,0.230,0.222,0.222
20,0.908,0.908,0.045,0.045
20,0.567,0.567,0.105,0.105
20,0.152,0.152,0.282,0.282
20,0.550,0.550,0.108,0.108
20,0.801,0.801,0.063,0.063
20,0.028,0.028,0.552,0.552
20,0.032,0.032,0.530,0.530
20,0.129,0.129,0.307,0.307
20,0.737,0.737,0.073,0.073
20,0.055,0.055,0.442,0.442
20,0.167,0.167,0.268,0.268
20,0.832,0.832,0.058,0.058
20,0.742,0.742,0.072,0.072
20,0.204,0.204,0.239,0.239
20,0.164,0.164,0.271,0.271
20,0.341,0.341,0.168,0.168
20,0.955,0.955,0.036,0.036
20,0.242,0.242,0.215,0.215
20,0.324,0.324,0.175,0.175
20,0.950,0.950,0.037,0.037
20,0.747,0.747,0.072,0.072
20,0.276,0.276,0.197,0.197
20,0.201,0.201,0.241,0.241
20,0.380,0.380,0.154,0.154
20,0.914,0.914,0.044,0.044
20,0.144,0.144,0.290,0.290
20,0.664,0.664,0.086,0.086
20,0.776,0.776,0.067,0.067
20,0.004,0.004,0.893,0.893
20,0.257,0.257,0.206,0.206
20,0.923,0.923,0.043,0.043
20,0.873,0.873,0.051,0.051
20,0.340,0.340,0.168,0.168
20,0.717,0.717,0.077,0.077
20,0.417,0.417,0.142,0.142
20,0.891,0.891,0.048,0.048
20,0.689,0.689,0.081,0.081
20,0.990,0.990,0.026,0.026
20,0.684,0.684,0.082,0.082
20,0.384,0.384,0.153,0.153
20,0.431,0.431,0.138,0.138
20,0.222,0.222,0.226,0.226
20,0.545,0.545,0.109,0.109
20,0.626,0.626,0.093,0.093
20,0.482,0.482,0.124,0.124
20,0.498,0.498,0.120,0.120
20,0.921,0.921,0.043,0.043
20,0.925,0.925,0.042,0.042
20,0.039,0.039,0.498,0.498
20,0.248,0.248,0.211,0.211
20,0.435,0.435,0.137,0.137
20,0.814,0.814,0.061,0.061
20,0.115,0.115,0.325,0.325
20,0.180,0.180,0.257,0.257
20,0.673,0.673,0.084,0.084
20,0.469,0.469,0.128,0.128
20,0.575,0.575,0.103,0.103
20,0.376,0.376,0.155,0.155
20,0.054,0.054,0.444,0.444
20,0.838,0.838,0.057,0.057
20,0.804,0.804,0.062,0.062
20,0.729,0.729,0.075,0.075
20,0.878,0.878,0.051,0.051
20,0.502,0.503,0.119,0.119
20,0.913,0.913,0.045,0.045
20,0.598,0.598,0.098,0.098
20,0.095,0.095,0.355,0.355
20,0.827,0.827,0.059,0.059
20,0.676,0.676,0.084,0.084
20,0.108,0.108,0.335,0.335
20,0.442,0.442,0.135,0.135
20,0.176,0.176,0.260,0.260
20,0.231,0.231,0.221,0.221
20,0.402,0.402,0.147,0.147
20,0.063,0.063,0.420,0.420
20,0.002,0.002,1.032,1.032
20,0.044,0.044,0.480,0.480
20,0.617,0.617,0.095,0.095
20,0.173,0.173,0.263,0.263
20,0.254,0.254,0.208,0.208
20,0.931,0.931,0.041,0.041
20,0.586,0.586,0.101,0.101
20,0.648,0.648,0.089,0.089
20,0.914,0.914,0.044,0.044
20,0.697,0.697,0.080,0.080
20,0.750,0.750,0.071,0.071
20,0.837,0.837,0.057,0.057
20,0.174,0.174,0.262,0.262
20,0.453,0.453,0.132,0.132
20,0.314,0.314,0.179,0.179
20,0.170,0.170,0.265,0.265
20,0.597,0.597,0.098,0.098
20,0.667,0.667,0.085,0.085
20,0.464,0.464,0.129,0.129
20,0.161,0.161,0.273,0.273
20,0.041,0.041,0.492,0.492
20,0.747,0.747,0.072,0.072
20,0.184,0.184,0.254,0.254
20,0.293,0.293,0.188,0.188
20,0.611,0.611,0.096,0.096
20,0.091,0.091,0.361,0.361
20,0.677,0.677,0.084,0.084
20,0.606,0.606,0.097,0.097
20,0.204,0.204,0.239,0.239
20,0.777,0.777,0.067,0.067
20,0.702,0.702,0.079,0.079
20,0.063,0.063,0.421,0.421
20,0.954,0.954,0.036,0.036
20,0.678,0.678,0.083,0.083
20,0.420,0.420,0.141,0.141
20,0.208,0.208,0.236,0.236
20,0.918,0.918,0.044,0.044
20,0.250,0.250,0.210,0.210
20,0.429,0.429,0.139,0.139
20,0.187,0.187,0.251,0.251
20,0.381,0.381,0.154,0.154
20,0.945,0.945,0.038,0.038
20,0.796,0.796,0.064,0.064
20,0.213,0.213,0.233,0.233
20,0.695,0.695,0.080,0.080
20,0.894,0.894,0.048,0.048
20,0.742,0.742,0.072,0.072
20,0.541,0.541,0.110,0.110
20,0.956,0.956,0.036,0.036
20,0.913,0.913,0.045,0.045
20,0.333,0.333,0.171,0.171
20,0.191,0.191,0.248,0.248
20,0.189,0.189,0.249,0.249
20,0.323,0.323,0.175,0.175
20,0.142,0.142,0.292,0.292
20,0.075,0.075,0.392,0.392
20,0.719,0.719,0.076,0.076
20,0.903,0.903,0.046,0.046
20,0.760,0.760,0.070,0.070
20,0.894,0.894,0.048,0.048
20,0.550,0.550,0.108,0.108
20,0.509,0.509,0.118,0.118
20,0.432,0.432,0.138,0.138
20,0.828,0.828,0.059,0.059
20,0.704,0.704,0.079,0.079
20,0.004,0.004,0.902,0.902
20,0.064,0.064,0.418,0.418
20,0.486,0.486,0.123,0.123
20,0.400,0.400,0.147,0.147
20,0.997,0.997,0.021,0.021
20,0.603,0.604,0.097,0.097
22,0.336,0.336,0.170,0.170
22,0.905,0.906,0.046,0.046
22,0.367,0.367,0.158,0.158
22,0.667,0.667,0.085,0.085
22,0.725,0.726,0.075,0.075
22,0.606,0.607,0.097,0.097
22,0.358,0.358,0.162,0.162
22,0.246,0.246,0.212,0.212
22,0.828,0.829,0.059,0.059
22,0.924,0.924,0.043,0.043
22,0.224,0.224,0.226,0.226
22,0.187,0.187,0.251,0.251
22,0.328,0.328,0.173,0.173
22,1.000,1.000,0.014,0.014
22,0.367,0.368,0.158,0.158
22,0.708,0.709,0.078,0.078
22,0.517,0.518,0.116,0.116
22,0.764,0.765,0.069,0.069
22,0.928,0.928,0.042,0.042
22,0.828,0.828,0.059,0.059
22,0.595,0.595,0.099,0.099
22,0.420,0.420,0.141,0.141
22,0.014,0.014,0.670,0.670
22,0.123,0.123,0.314,0.314
22,0.530,0.530,0.113,0.113
22,0.258,0.258,0.206,0.206
22,0.086,0.086,0.370,0.370
22,0.587,0.587,0.101,0.101
22,0.903,0.903,0.046,0.046
22,0.432,0.432,0.138,0.138
22,0.092,0.092,0.359,0.359
22,0.086,0.085,0.371,0.371
22,0.688,0.688,0.082,0.082
22,0.786,0.786,0.065,0.065
22,0.886,0.886,0.049,0.049
22,0.360,0.360,0.161,0.161
22,0.795,0.795,0.064,0.064
22,0.579,0.580,0.102,0.102
22,0.519,0.519,0.115,0.115
22,0.685,0.686,0.082,0.082
22,0.887,0.887,0.049,0.049
22,0.529,0.529,0.113,0.113
22,0.595,0.595,0.099,0.099
22,0.210,0.210,0.234,0.234
22,0.442,0.442,0.135,0.135
22,0.940,0.940,0.040,0.040
22,0.669,0.670,0.085,0.085
22,0.359,0.360,0.161,0.161
22,0.793,0.793,0.064,0.064
22,0.971,0.971,0.032,0.032
22,0.423,0.423,0.140,0.140
22,0.081,0.081,0.380,0.380
22,0.272,0.272,0.198,0.198
22,0.588,0.589,0.100,0.100
22,0.720,0.720,0.076,0.076
22,0.832,0.833,0.058,0.058
22,0.594,0.594,0.099,0.099
22,0.664,0.665,0.086,0.086
22,0.584,0.584,0.101,0.101
22,0.565,0.565,0.105,0.105
22,0.039,0.039,0.501,0.501
22,0.943,0.943,0.039,0.039
22,0.734,0.734,0.074,0.074
22,0.137,0.137,0.297,0.297
22,0.407,0.407,0.145,0.145
22,0.024,0.024,0.578,0.578
22,0.736,0.737,0.073,0.073
22,0.746,0.746,0.072,0.072
22,0.849,0.850,0.055,0.055
22,0.689,0.690,0.081,0.081
22,0.639,0.639,0.090,0.090
22,0.723,0.724,0.076,0.076
22,0.273,0.273,0.198,0.198
22,0.247,0.247,0.211,0.211
22,0.514,0.514,0.116,0.116
22,0.422,0.423,0.141,0.141
22,0.007,0.007,0.797,0.797
22,0.183,0.183,0.254,0.254
22,0.596,0.597,0.099,0.099
22,0.526,0.527,0.113,0.113
22,0.439,0.439,0.136,0.136
22,0.134,0.134,0.301,0.301
22,0.193,0.193,0.247,0.247
22,0.405,0.406,0.146,0.146
22,0.203,0.203,0.239,0.239
22,0.899,0.900,0.047,0.047
22,0.112,0.112,0.329,0.329
22,0.615,0.615,0.095,0.095
22,0.524,0.524,0.114,0.114
22,0.270,0.270,0.199,0.199
22,0.606,0.607,0.097,0.097
22,0.643,0.643,0.090,0.090
22,0.291,0.292,0.189,0.189
22,0.782,0.782,0.066,0.066
22,0.579,0.579,0.102,0.102
22,0.582,0.582,0.101,0.101
22,0.576,0.577,0.103,0.103
22,0.305,0.305,0.183,0.183
22,0.823,0.823,0.059,0.059
22,0.545,0.546,0.109,0.109
22,0.640,0.641,0.090,0.090
22,0.630,0.630,0.092,0.092
22,0.718,0.718,0.076,0.076
22,0.058,0.058,0.433,0.433
22,0.036,0.036,0.511,0.511
22,0.620,0.621,0.094,0.094
22,0.088,0.088,0.367,0.367
22,0.861,0.862,0.053,0.053
22,0.959,0.960,0.035,0.035
22,0.532,0.533,0.112,0.112
22,0.143,0.143,0.291,0.291
22,0.551,0.552,0.108,0.108
22,0.361,0.361,0.161,0.161
22,0.193,0.193,0.247,0.247
22,0.030,0.030,0.543,0.543
22,0.904,0.905,0.046,0.046
22,0.916,0.917,0.044,0.044
22,0.693,0.694,0.081,0.081
22,0.332,0.332,0.171,0.171
22,0.898,0.898,0.047,0.047
22,0.243,0.243,0.214,0.214
22,0.135,0.135,0.300,0.300
22,0.849,0.850,0.055,0.055
22,0.585,0.585,0.101,0.101
22,0.279,0.279,0.195,0.195
22,0.872,0.873,0.051,0.051
22,0.691,0.692,0.081,0.081
22,0.421,0.421,0.141,0.141
22,0.837,0.838,0.057,0.057
22,0.205,0.205,0.238,0.238
22,0.068,0.068,0.408,0.408
22,0.042,0.042,0.487,0.487
22,0.163,0.163,0.271,0.271
22,0.902,0.903,0.046,0.046
22,0.726,0.727,0.075,0.075
22,0.483,0.483,0.124,0.124
22,0.172,0.172,0.263,0.263
22,0.729,0.729,0.075,0.075
22,0.026,0.026,0.569,0.569
22,0.032,0.032,0.534,0.534
22,0.807,0.808,0.062,0.062
22,0.821,0.821,0.060,0.060
22,0.250,0.250,0.210,0.210
22,0.994,0.994,0.023,0.023
22,0.508,0.509,0.118,0.118
22,0.020,0.020,0.611,0.611
22,0.080,0.080,0.381,0.381
22,0.263,0.263,0.203,0.203
22,0.458,0.459,0.130,0.130
22,0.337,0.337,0.169,0.169
22,0.403,0.403,0.146,0.146
22,0.681,0.682,0.083,0.083
22,0.623,0.623,0.093,0.093
22,0.856,0.857,0.054,0.054
22,0.450,0.450,0.133,0.133
22,0.463,0.463,0.129,0.129
22,0.780,0.781,0.066,0.066
22,0.670,0.670,0.085,0.085
22,0.580,0.580,0.102,0.102
22,0.615,0.616,0.095,0.095
22,0.266,0.266,0.201,0.201
22,0.653,0.653,0.088,0.088
22,0.474,0.475,0.126,0.126
22,0.693,0.694,0.081,0.081
22,0.893,0.894,0.048,0.048
22,0.125,0.125,0.312,0.312
22,0.539,0.540,0.111,0.111
22,0.931,0.931,0.041,0.041
22,0.897,0.897,0.047,0.047
22,0.658,0.658,0.087,0.087
22,0.228,0.228,0.223,0.223
22,0.694,0.695,0.080,0.080
22,0.096,0.095,0.353,0.353
22,0.762,0.763,0.069,0.069
22,0.407,0.407,0.145,0.145
22,0.903,0.904,0.046,0.046
22,0.437,0.437,0.136,0.136
22,0.227,0.227,0.223,0.223
22,0.997,0.997,0.021,0.021
22,0.272,0.272,0.198,0.198
22,0.009,0.009,0.755,0.755
22,0.466,0.466,0.128,0.128
22,0.434,0.435,0.137,0.137
22,0.325,0.325,0.174,0.174
22,0.784,0.784,0.066,0.066
22,0.694,0.694,0.080,0.080
22,0.123,0.123,0.315,0.315
22,0.397,0.397,0.148,0.148
22,0.356,0.356,0.162,0.162
22,0.799,0.800,0.063,0.063
22,0.683,0.683,0.082,0.082
22,0.226,0.226,0.224,0.224
22,0.754,0.755,0.070,0.070
22,0.026,0.026,0.566,0.566
22,0.878,0.879,0.050,0.050
22,0.744,0.745,0.072,0.072
22,0.021,0.021,0.606,0.606
22,0.741,0.741,0.073,0.073
22,0.566,0.566,0.105,0.105
22,0.992,0.992,0.025,0.025
22,0.707,0.707,0.078,0.078
22,0.604,0.605,0.097,0.097
22,0.825,0.826,0.059,0.059
22,0.599,0.600,0.098,0.098
22,0.003,0.003,0.913,0.913
22,0.854,0.855,0.054,0.054
22,0.612,0.613,0.095,0.095
22,0.799,0.800,0.063,0.063
22,0.874,0.874,0.051,0.051
22,0.021,0.021,0.601,0.601
22,0.067,0.067,0.409,0.409
22,0.254,0.254,0.208,0.208
22,0.691,0.691,0.081,0.081
22,0.334,0.334,0.171,0.171
22,0.725,0.725,0.075,0.075
22,0.778,0.778,0.067,0.067
22,0.964,0.964,0.034,0.034
22,0.177,0.177,0.259,0.259
22,0.200,0.200,0.242,0.242
22,0.230,0.230,0.222,0.222
22,0.753,0.753,0.071,0.071
22,0.943,0.943,0.039,0.039
22,0.977,0.977,0.031,0.031
22,0.868,0.868,0.052,0.052
22,0.684,0.684,0.082,0.082
22,0.428,0.428,0.139,0.139
22,0.040,0.040,0.496,0.496
22,0.492,0.492,0.122,0.122
22,0.261,0.261,0.204,0.204
22,0.294,0.294,0.188,0.188
22,0.161,0.161,0.274,0.274
22,0.153,0.153,0.281,0.281
22,0.991,0.991,0.025,0.025
22,0.983,0.984,0.028,0.028
22,0.206,0.206,0.237,0.237
22,0.438,0.438,0.136,0.136
22,0.589,0.589,0.100,0.100
22,0.580,0.581,0.102,0.102
22,0.815,0.815,0.061,0.061
22,0.245,0.245,0.213,0.213
22,0.149,0.149,0.285,0.285
22,0.291,0.291,0.189,0.189
22,0.839,0.840,0.057,0.057
22,0.526,0.526,0.114,0.114
22,0.750,0.751,0.071,0.071
22,0.175,0.175,0.261,0.261
22,0.992,0.992,0.025,0.025
22,0.921,0.922,0.043,0.043
22,0.951,0.951,0.037,0.037
22,0.221,0.221,0.227,0.227
22,0.229,0.229,0.222,0.222
22,0.303,0.303,0.184,0.184
22,0.435,0.435,0.137,0.137
22,0.986,0.986,0.028,0.028
22,0.421,0.421,0.141,0.141
22,0.341,0.342,0.168,0.168
22,0.346,0.346,0.166,0.166
22,0.731,0.732,0.074,0.074
22,0.012,0.012,0.702,0.702
22,0.292,0.292,0.189,0.189
22,0.397,0.397,0.148,0.148
22,0.407,0.408,0.145,0.145
22,0.761,0.761,0.069,0.069
22,0.148,0.148,0.286,0.286
22,0.115,0.115,0.324,0.324
22,0.465,0.465,0.129,0.129
22,0.742,0.742,0.072,0.072
22,0.029,0.029,0.548,0.548
22,0.570,0.571,0.104,0.104
22,0.910,0.910,0.045,0.045
22,0.690,0.690,0.081,0.081
22,0.045,0.045,0.476,0.476
22,0.417,0.418,0.142,0.142
22,0.314,0.315,0.179,0.179
22,0.096,0.096,0.353,0.353
22,0.909,0.910,0.045,0.045
22,0.061,0.061,0.426,0.426
22,0.172,0.172,0.263,0.263
22,0.925,0.926,0.042,0.042
22,0.743,0.743,0.072,0.072
22,0.758,0.758,0.070,0.070
22,0.389,0.389,0.151,0.151
22,0.986,0.986,0.027,0.027
22,0.050,0.050,0.459,0.459
22,0.360,0.360,0.161,0.161
22,0.825,0.826,0.059,0.059
22,0.802,0.802,0.063,0.063
22,0.810,0.811,0.061,0.061
22,0.563,0.564,0.105,0.105
22,0.811,0.811,0.061,0.061
22,0.371,0.371,0.157,0.157
22,0.049,0.049,0.463,0.463
22,0.533,0.533,0.112,0.112
22,0.647,0.648,0.089,0.089
22,0.977,0.977,0.030,0.030
22,0.392,0.392,0.150,0.150
22,0.455,0.455,0.131,0.131
22,0.457,0.457,0.131,0.131
22,0.690,0.691,0.081,0.081
22,0.147,0.147,0.287,0.287
22,0.212,0.212,0.233,0.233
22,0.165,0.165,0.270,0.270
22,0.732,0.732,0.074,0.074
22,0.409,0.409,0.145,0.145
22,0.842,0.843,0.056,0.056
22,0.555,0.555,0.107,0.107
22,0.803,0.803,0.063,0.063
22,0.344,0.344,0.167,0.167
22,0.882,0.882,0.050,0.050
22,0.066,0.066,0.412,0.412
22,0.239,0.239,0.216,0.216
22,0.883,0.883,0.050,0.050
22,0.469,0.470,0.127,0.127
22,0.947,0.947,0.038,0.038
22,0.236,0.236,0.218,0.218
22,0.007,0.007,0.790,0.790
22,0.666,0.667,0.085,0.085
22,0.476,0.476,0.126,0.126
22,0.957,0.958,0.036,0.036
22,0.896,0.896,0.048,0.048
22,0.203,0.203,0.239,0.239
22,0.297,0.298,0.186,0.186
22,0.925,0.926,0.042,0.042
22,0.749,0.749,0.071,0.071
22,0.635,0.635,0.091,0.091
22,0.141,0.141,0.293,0.293
22,0.043,0.043,0.482,0.482
22,0.427,0.427,0.139,0.139
22,0.212,0.212,0.233,0.233
22,0.589,0.589,0.100,0.100
22,0.051,0.051,0.456,0.456
22,0.893,0.893,0.048,0.048
22,0.966,0.966,0.034,0.034
22,0.220,0.220,0.228,0.228
22,0.891,0.892,0.048,0.048
22,0.943,0.943,0.039,0.039
22,0.536,0.537,0.111,0.111
22,0.570,0.570,0.104,0.104
22,0.364,0.364,0.160,0.160
22,0.961,0.961,0.035,0.035
22,0.687,0.688,0.082,0.082
22,0.179,0.179,0.258,0.258
22,0.084,0.084,0.374,0.374
22,0.155,0.155,0.279,0.279
22,0.334,0.334,0.171,0.171
22,0.195,0.195,0.245,0.245
22,0.778,0.779,0.066,0.066
22,0.825,0.826,0.059,0.059
22,0.512,0.512,0.117,0.117
22,0.839,0.840,0.057,0.057
22,0.125,0.125,0.312,0.312
22,0.871,0.871,0.052,0.052
22,0.969,0.969,0.033,0.033
22,0.192,0.192,0.248,0.248
22,0.668,0.668,0.085,0.085
22,0.425,0.425,0.140,0.140
22,0.044,0.044,0.478,0.478
22,0.350,0.350,0.165,0.165
22,0.760,0.760,0.069,0.069
22,0.042,0.042,0.485,0.485
22,0.103,0.103,0.342,0.342
22,0.126,0.126,0.311,0.311
22,0.601,0.602,0.098,0.098
22,0.096,0.096,0.352,0.352
22,0.467,0.467,0.128,0.128
22,0.891,0.892,0.048,0.048
22,0.915,0.915,0.044,0.044
22,0.191,0.191,0.248,0.248
22,0.133,0.133,0.302,0.302
22,0.290,0.290,0.190,0.190
22,0.862,0.862,0.053,0.053
22,0.159,0.159,0.275,0.275
22,0.289,0.290,0.190,0.190
22,0.851,0.851,0.055,0.055
22,0.861,0.861,0.053,0.053
22,0.177,0.177,0.260,0.260
22,0.302,0.303,0.184,0.184
22,0.276,0.276,0.196,0.196
22,0.881,0.881,0.050,0.050
22,0.166,0.166,0.269,0.269
22,0.765,0.766,0.069,0.069
22,0.735,0.736,0.074,0.074
22,0.004,0.004,0.877,0.877
22,0.259,0.260,0.205,0.205
22,0.823,0.823,0.059,0.059
22,0.458,0.458,0.130,0.130
22,0.432,0.432,0.138,0.138
22,0.831,0.832,0.058,0.058
22,0.403,0.403,0.147,0.147
22,0.983,0.983,0.028,0.028
22,0.432,0.432,0.138,0.138
22,0.979,0.980,0.030,0.030
22,0.375,0.375,0.156,0.156
22,0.144,0.144,0.290,0.290
22,0.457,0.458,0.131,0.131
22,0.303,0.303,0.184,0.184
22,0.669,0.670,0.085,0.085
22,0.642,0.643,0.090,0.090
22,0.382,0.382,0.153,0.153
22,0.596,0.597,0.099,0.099
22,0.843,0.843,0.056,0.056
22,0.976,0.977,0.031,0.031
22,0.055,0.055,0.443,0.443
22,0.289,0.289,0.190,0.190
22,0.369,0.369,0.158,0.158
22,0.889,0.889,0.049,0.049
22,0.340,0.340,0.168,0.168
22,0.328,0.328,0.173,0.173
22,0.516,0.517,0.116,0.116
22,0.576,0.577,0.103,0.103
22,0.457,0.457,0.131,0.131
22,0.448,0.449,0.133,0.133
22,0.068,0.067,0.409,0.409
22,0.778,0.779,0.067,0.067
22,0.871,0.872,0.052,0.052
22,0.805,0.805,0.062,0.062
22,0.952,0.953,0.037,0.037
22,0.643,0.643,0.090,0.090
22,0.741,0.742,0.073,0.073
22,0.601,0.601,0.098,0.098
22,0.170,0.170,0.265,0.265
22,0.794,0.795,0.064,0.064
22,0.353,0.353,0.163,0.163
22,0.122,0.122,0.316,0.316
22,0.342,0.342,0.168,0.168
22,0.083,0.082,0.377,0.377
22,0.196,0.196,0.245,0.245
22,0.587,0.588,0.100,0.100
22,0.249,0.249,0.210,0.210
22,0.000,0.002,1.316,1.316
22,0.012,0.012,0.697,0.697
22,0.317,0.317,0.178,0.178
22,0.319,0.319,0.177,0.177
22,0.258,0.258,0.206,0.206
22,0.921,0.921,0.043,0.043
22,0.597,0.597,0.098,0.098
22,0.552,0.552,0.108,0.108
22,0.890,0.890,0.049,0.049
22,0.657,0.657,0.087,0.087
22,0.569,0.569,0.104,0.104
22,0.585,0.585,0.101,0.101
22,0.392,0.392,0.150,0.150
22,0.301,0.301,0.185,0.185
22,0.100,0.100,0.346,0.346
22,0.501,0.502,0.119,0.119
22,0.427,0.427,0.139,0.139
22,0.871,0.872,0.052,0.052
22,0.818,0.819,0.060,0.060
22,0.078,0.078,0.385,0.385
22,0.059,0.058,0.432,0.432
22,0.931,0.931,0.041,0.041
22,0.251,0.251,0.209,0.209
22,0.164,0.164,0.271,0.271
22,0.565,0.566,0.105,0.105
22,0.093,0.092,0.359,0.359
22,0.700,0.701,0.079,0.079
22,0.672,0.673,0.084,0.084
22,0.476,0.477,0.126,0.126
22,0.797,0.798,0.063,0.063
22,0.389,0.389,0.151,0.151
22,0.034,0.034,0.523,0.523
22,0.954,0.954,0.036,0.036
22,0.779,0.779,0.066,0.066
22,0.398,0.398,0.148,0.148
22,0.244,0.244,0.214,0.214
22,0.986,0.986,0.027,0.027
22,0.473,0.473,0.127,0.127
22,0.541,0.541,0.110,0.110
22,0.073,0.073,0.396,0.396
22,0.296,0.296,0.187,0.187
22,0.884,0.884,0.050,0.050
22,0.840,0.840,0.057,0.057
22,0.183,0.183,0.254,0.254
22,0.687,0.687,0.082,0.082
22,0.923,0.923,0.043,0.043
22,0.886,0.887,0.049,0.049
22,0.532,0.533,0.112,0.112
22,0.942,0.943,0.039,0.039
22,0.963,0.963,0.034,0.034
22,0.377,0.378,0.155,0.155
22,0.266,0.266,0.201,0.201
22,0.149,0.149,0.285,0.285
22,0.532,0.532,0.112,0.112
22,0.430,0.430,0.138,0.138
22,0.037,0.037,0.509,0.509
22,0.770,0.770,0.068,0.068
22,0.817,0.817,0.060,0.060
22,0.908,0.908,0.045,0.045
22,0.815,0.816,0.061,0.061
22,0.598,0.598,0.098,0.098
22,0.522,0.522,0.115,0.115
22,0.728,0.728,0.075,0.075
22,0.626,0.626,0.093,0.093
22,0.761,0.762,0.069,0.069
22,0.011,0.011,0.712,0.712
22,0.115,0.115,0.325,0.325
22,0.462,0.462,0.129,0.129
22,0.343,0.343,0.167,0.167
22,0.967,0.967,0.033,0.033
22,0.297,0.297,0.186,0.186
