# --------------------------------------------------
# nrow : 500
# ncol : 22
# comment : Data to test the Cramer-Von Mises test
# time_generated : 2017-02-03 21:03:09
# author : magpie
# source_file : /home/magpie/Documents/ideas/von_mises_test/cramer_vonmises_tables_check.py
# work_dir : /home/magpie/Documents/ideas/von_mises_test
# python_environment : posix
# python_version : 2.7.12 |Continuum Analytics, Inc.| (default, Jul  2 2016, 17:42:40)  [GCC 4.4.7 20120313 (Red Hat 4.4.7-1)]
# pandas_version : 0.17.1
# numpy_version : 1.10.4
# python_inc : /home/magpie/.conda/envs/jl_test_env/include/python2.7
# python_lib : /home/magpie/.conda/envs/jl_test_env/lib/python2.7/site-packages
# --------------------------------------------------
0,1,2,3,4,5,6,7,8,9,10,11,12,13,14,15,16,17,18,19,20,21
0.398,0.630,0.154,0.772,0.050,0.481,0.656,0.939,0.975,0.803,0.550,0.263,0.181,0.130,0.205,0.043,0.150,0.006,0.659,0.173,0.673,0.618
0.871,0.490,0.131,0.053,0.311,0.842,0.337,0.557,0.726,0.146,0.057,0.536,0.297,0.872,0.888,0.535,0.931,0.257,0.529,0.301,0.857,0.597
0.157,0.095,0.586,0.863,0.799,0.329,0.051,0.969,0.187,0.481,0.561,0.386,0.072,0.105,0.118,0.122,0.712,0.699,0.741,0.531,0.211,0.766
0.036,0.709,0.990,0.912,0.972,0.751,0.563,0.582,0.338,0.055,0.385,0.598,0.024,0.039,0.357,0.400,0.594,0.722,0.653,0.636,0.043,0.191
0.955,0.200,0.159,0.682,0.945,0.578,0.144,0.479,0.910,0.685,0.713,0.588,0.707,0.679,0.032,0.258,0.122,0.459,0.159,0.623,0.150,0.806
0.422,0.548,0.763,0.649,0.971,0.862,0.700,0.938,0.641,0.015,0.665,0.000,0.236,0.351,0.862,0.725,0.363,0.008,0.119,0.190,0.645,0.868
0.563,0.675,0.300,0.172,0.595,0.682,0.737,0.932,0.961,0.786,0.525,0.918,0.744,0.860,0.354,0.259,0.141,0.980,0.365,0.751,0.036,0.290
0.204,0.212,0.145,0.728,0.381,0.434,0.026,0.267,0.443,0.278,0.652,0.125,0.250,0.976,0.553,0.072,0.713,0.302,0.127,0.758,0.734,0.996
0.412,0.818,0.846,0.870,0.534,0.124,0.525,0.619,0.223,0.215,0.195,0.397,0.674,0.209,0.521,0.827,0.883,0.321,0.358,0.611,0.440,0.030
0.358,0.362,0.207,0.676,0.105,0.920,0.741,0.559,0.824,0.605,0.371,0.490,0.506,0.937,0.010,0.115,0.941,0.753,0.161,0.074,0.174,0.485
0.259,0.579,0.553,0.669,0.637,0.564,0.619,0.962,0.976,0.358,0.010,0.447,0.727,0.591,0.480,0.965,0.782,0.543,0.138,0.837,0.658,0.030
0.584,0.044,0.578,0.757,0.876,0.175,0.936,0.383,0.530,0.856,0.055,0.080,0.729,0.628,0.877,0.749,0.835,0.343,0.378,0.646,0.749,0.946
0.890,0.530,0.936,0.660,0.689,0.616,0.241,0.418,0.774,0.219,0.808,0.457,0.171,0.230,0.088,0.693,0.029,0.127,0.040,0.519,0.078,0.126
0.460,0.696,0.545,0.021,0.337,0.288,0.234,0.751,0.104,0.415,0.914,0.928,0.400,0.696,0.622,0.204,0.523,0.609,0.102,0.159,0.846,0.959
0.984,0.038,0.832,0.706,0.895,0.361,0.641,0.437,0.332,0.647,0.894,0.699,0.502,0.121,0.997,0.043,0.924,0.180,0.627,0.935,0.395,0.352
0.217,0.042,0.574,0.867,0.151,0.433,0.551,0.625,0.236,0.871,0.467,0.609,0.420,0.882,0.658,0.961,0.958,0.053,0.613,0.621,0.321,0.453
0.193,0.453,0.423,0.750,0.963,0.543,0.307,0.225,0.014,0.544,0.713,0.547,0.611,0.145,0.661,0.923,0.596,0.228,0.512,0.399,0.736,0.596
0.838,0.817,0.881,0.137,0.422,0.613,0.757,0.211,0.809,0.586,0.959,0.378,0.968,0.363,0.137,0.582,0.029,0.565,0.753,0.138,0.602,0.044
0.982,0.387,0.150,0.413,0.899,0.287,0.805,0.720,0.941,0.415,0.167,0.546,0.035,0.130,0.630,0.527,0.348,0.779,0.360,0.909,0.638,0.378
0.338,0.318,0.981,0.984,0.634,0.064,0.635,0.793,0.599,0.688,0.580,0.866,0.665,0.209,0.557,0.398,0.329,0.100,0.630,0.249,0.486,0.052
0.764,0.374,0.545,0.909,0.921,0.334,0.391,0.160,0.579,0.312,0.790,0.861,0.048,0.977,0.444,0.617,0.356,0.391,0.172,0.977,0.541,0.440
0.282,0.115,0.600,0.167,0.948,0.384,0.895,0.756,0.482,0.410,0.293,0.623,0.775,0.934,0.745,0.412,0.904,0.512,0.304,0.919,0.424,0.405
0.608,0.385,0.415,0.605,0.206,0.963,0.069,0.300,0.284,0.089,0.150,0.354,0.171,0.108,0.058,0.345,0.560,0.807,0.666,0.064,0.041,0.372
0.049,0.117,0.406,0.048,0.266,0.576,0.877,0.563,0.980,0.612,0.654,0.420,0.042,0.829,0.216,0.062,0.091,0.239,0.342,0.274,0.437,0.599
0.080,0.291,0.339,0.237,0.847,0.299,0.984,0.841,0.262,0.324,0.472,0.595,0.892,0.445,0.050,0.092,0.873,0.004,0.567,0.270,0.515,0.979
0.556,0.504,0.376,0.447,0.020,0.491,0.442,0.807,0.463,0.759,0.414,0.515,0.493,0.107,0.756,0.275,0.029,0.415,0.845,0.805,0.531,0.186
0.745,0.053,0.246,0.692,0.724,0.974,0.989,0.966,0.845,0.626,0.642,0.479,0.898,0.488,0.217,0.292,0.698,0.509,0.031,0.549,0.857,0.969
0.077,0.812,0.985,0.671,0.896,0.957,0.420,0.089,0.803,0.137,0.679,0.653,0.449,0.153,0.237,0.754,0.644,0.643,0.144,0.156,0.886,0.510
0.038,0.413,0.801,0.198,0.771,0.624,0.083,0.592,0.307,0.675,0.750,0.057,0.149,0.682,0.832,0.590,0.668,0.400,0.422,0.335,0.945,0.895
0.599,0.316,0.600,0.743,0.233,0.966,0.642,0.093,0.476,0.788,0.920,0.421,0.930,0.298,0.700,0.298,0.888,0.698,0.214,0.944,0.379,0.335
0.451,0.672,0.780,0.310,0.263,0.398,0.412,0.145,0.143,0.402,0.324,0.693,0.381,0.296,0.304,0.584,0.530,0.122,0.058,0.759,0.030,0.708
0.049,0.602,0.607,0.371,0.523,0.244,0.552,0.653,0.005,0.181,0.657,0.950,0.030,0.236,0.293,0.097,0.090,0.212,0.589,0.315,0.334,0.883
0.632,0.158,0.792,0.941,0.192,0.383,0.595,0.138,0.712,0.031,0.764,0.669,0.104,0.851,0.628,0.122,0.387,0.246,0.162,0.280,0.826,0.733
0.473,0.743,0.682,0.597,0.334,0.875,0.047,0.643,0.222,0.291,0.479,0.639,0.404,0.948,0.101,0.579,0.591,0.112,0.955,0.916,0.277,0.965
0.175,0.564,0.803,0.115,0.655,0.265,0.633,0.889,0.999,0.529,0.731,0.640,0.926,0.546,0.436,0.618,0.638,0.040,0.227,0.334,0.295,0.148
0.085,0.668,0.920,0.949,0.115,0.516,0.041,0.026,0.553,0.283,0.741,0.262,0.673,0.006,0.087,0.564,0.337,0.193,0.488,0.907,0.233,0.977
0.885,0.772,0.852,0.510,0.242,0.823,0.726,0.580,0.102,0.535,0.283,0.924,0.376,0.928,0.965,0.318,0.210,0.186,0.654,0.666,0.205,0.109
0.620,0.775,0.915,0.288,0.262,0.333,0.150,0.756,0.186,0.820,0.066,0.398,0.168,0.739,0.888,0.220,0.317,0.067,0.588,0.109,0.740,0.562
0.774,0.890,0.190,0.015,0.056,0.442,0.510,0.988,0.743,0.555,0.540,0.826,0.221,0.006,0.432,0.191,0.595,0.142,0.002,0.417,0.412,0.733
0.090,0.751,0.343,0.782,0.148,0.611,0.960,0.232,0.617,0.661,0.603,0.746,0.769,0.369,0.461,0.627,0.711,0.523,0.002,0.485,0.178,0.293
0.812,0.587,0.060,0.319,0.128,0.393,0.903,0.230,0.198,0.762,0.735,0.665,0.538,0.174,0.509,0.587,0.940,0.024,0.930,0.175,0.845,0.891
0.933,0.929,0.218,0.426,0.622,0.104,0.276,0.042,0.918,0.494,0.382,0.369,0.032,0.514,0.915,0.313,0.858,0.142,0.480,0.905,0.170,0.369
0.623,0.411,0.440,0.232,0.941,0.133,0.642,0.747,0.238,0.816,0.330,0.303,0.805,0.323,0.175,0.856,0.012,0.212,0.299,0.967,0.533,0.160
0.975,0.389,0.426,0.798,0.118,0.986,0.962,0.665,0.008,0.974,0.842,0.169,0.080,0.392,0.967,0.871,0.991,0.272,0.150,0.658,0.485,0.263
0.632,0.274,0.712,0.116,0.953,0.309,0.766,0.257,0.359,0.823,0.414,0.628,0.961,0.224,0.850,0.631,0.331,0.827,0.834,0.375,0.795,0.187
0.982,0.044,0.291,0.622,0.250,0.598,0.193,0.989,0.717,0.641,0.493,0.872,0.661,0.895,0.300,0.494,0.384,0.932,0.036,0.015,0.075,0.475
0.907,0.821,0.371,0.521,0.002,0.172,0.591,0.558,0.418,0.023,0.931,0.975,0.223,0.992,0.145,0.117,0.621,0.783,0.718,0.210,0.797,0.802
0.756,0.248,0.231,0.221,0.770,0.261,0.413,0.506,0.302,0.437,0.770,0.239,0.600,0.764,0.465,0.234,0.850,0.561,0.197,0.747,0.356,0.724
0.101,0.487,0.245,0.288,0.439,0.376,0.435,0.185,0.534,0.158,0.684,0.333,0.386,0.981,0.859,0.901,0.195,0.686,0.965,0.407,0.649,0.882
0.536,0.008,0.303,0.908,0.399,0.739,0.115,0.315,0.232,0.960,0.874,0.691,0.461,0.883,0.082,0.335,0.908,0.561,0.178,0.459,0.088,0.780
0.610,0.529,0.820,0.930,0.044,0.915,0.603,0.158,0.431,0.392,0.171,0.191,0.439,0.474,0.939,0.572,0.549,0.875,0.549,0.693,0.592,0.386
0.745,0.894,0.479,0.780,0.877,0.241,0.240,0.140,0.769,0.512,0.838,0.237,0.193,0.822,0.244,0.765,0.920,0.485,0.743,0.891,0.589,0.948
0.538,0.336,0.193,0.572,0.450,0.962,0.643,0.486,0.109,0.888,0.155,0.304,0.091,0.141,0.609,0.141,0.870,0.180,0.081,0.965,0.221,0.614
0.858,0.210,0.068,0.058,0.221,0.967,0.267,0.658,0.154,0.788,0.753,0.472,0.014,0.747,0.862,0.560,0.210,0.850,0.873,0.791,0.408,0.128
0.971,0.057,0.332,0.175,0.808,0.497,0.916,0.340,0.394,0.508,0.170,0.274,0.703,0.793,0.495,0.037,0.559,0.813,0.307,0.982,0.060,0.060
0.288,0.577,0.429,0.282,0.650,0.648,0.092,0.993,0.999,0.446,0.466,0.867,0.156,0.889,0.987,0.189,0.260,0.535,0.047,0.939,0.706,0.023
0.455,0.234,0.577,0.129,0.368,0.495,0.965,0.182,0.024,0.540,0.737,0.446,0.590,0.889,0.880,0.877,0.219,0.687,0.022,0.037,0.187,0.270
0.856,0.687,0.120,0.750,0.137,0.138,0.671,0.321,0.641,0.639,0.709,0.059,0.460,0.508,0.058,0.292,0.678,0.516,0.622,0.478,0.195,0.993
0.219,0.173,0.279,0.136,0.845,0.215,0.405,0.181,0.287,0.817,0.309,1.000,0.701,0.909,0.438,0.528,0.705,0.165,0.631,0.566,0.605,0.149
0.889,0.765,0.784,0.692,0.646,0.563,0.046,0.690,0.426,0.188,0.514,0.323,0.730,0.381,0.432,0.378,0.631,0.049,0.209,0.731,0.844,0.429
0.192,0.333,0.440,0.072,0.425,0.623,0.209,0.899,0.027,0.516,0.220,0.015,0.675,0.690,0.133,0.651,0.036,0.605,0.255,0.064,0.380,0.462
0.151,0.404,0.853,0.248,0.228,0.121,0.696,0.792,0.536,0.868,0.497,0.794,0.475,0.627,0.802,0.013,0.129,0.648,0.034,0.987,0.481,0.626
0.744,0.600,0.076,0.943,0.940,0.094,0.667,0.930,0.118,0.995,0.057,0.560,0.254,0.813,0.371,0.045,0.547,0.478,0.202,0.044,0.721,0.424
0.695,0.488,0.865,0.786,0.252,0.749,0.258,0.590,0.419,0.599,0.063,0.499,0.377,0.738,0.644,0.496,0.455,0.842,0.623,0.385,0.602,0.690
0.335,0.994,0.215,0.784,0.874,0.327,0.417,0.572,0.945,0.487,0.841,0.514,0.692,0.352,0.562,0.831,0.208,0.222,0.629,0.767,0.112,0.964
0.507,0.533,0.645,0.839,0.638,0.972,0.522,0.481,0.605,0.154,0.891,0.649,0.664,0.802,0.580,0.848,0.643,0.276,0.739,0.614,0.641,0.193
0.535,0.269,0.600,0.486,0.276,0.426,0.179,0.413,0.830,0.839,0.833,0.647,0.870,0.136,0.525,0.702,0.960,0.960,0.920,0.162,0.161,0.237
0.463,0.097,0.654,0.706,0.663,0.244,0.906,0.808,0.620,0.260,0.440,0.085,0.702,0.327,0.701,0.562,0.377,0.095,0.611,0.741,0.892,0.213
0.046,0.060,0.502,0.787,0.814,0.533,0.779,0.582,0.728,0.984,0.260,0.331,0.434,0.646,0.781,0.119,0.040,0.522,0.091,0.202,0.798,0.877
0.826,0.996,0.193,0.373,0.870,0.755,0.617,0.237,0.089,0.731,0.107,0.530,0.440,0.946,0.089,0.882,0.208,0.123,0.801,0.328,0.805,0.167
0.538,0.589,0.198,0.611,0.203,0.547,0.276,0.106,0.647,0.688,0.989,0.941,0.650,0.146,0.563,0.123,0.080,0.725,0.210,0.456,0.647,0.989
0.471,0.184,0.449,0.599,0.851,0.019,0.322,0.255,0.732,0.909,0.123,0.510,0.052,0.841,0.800,0.372,0.728,0.597,0.098,0.156,0.676,0.157
0.126,0.420,0.362,0.800,0.892,0.136,0.141,0.267,0.923,0.613,0.105,0.636,0.809,0.526,0.919,0.836,0.787,0.820,0.918,0.796,0.351,0.345
0.975,0.995,0.913,0.163,0.782,0.340,0.077,0.693,0.416,0.963,0.116,0.947,0.595,0.099,0.938,0.890,0.277,0.710,0.299,0.334,0.751,0.086
0.662,0.940,0.000,0.509,0.930,0.161,0.655,0.002,0.496,0.754,0.107,0.103,0.339,0.003,0.039,0.460,0.511,0.224,0.818,0.586,0.834,0.696
0.140,0.317,0.165,0.233,0.760,0.211,0.115,0.703,0.732,0.282,0.660,0.992,0.781,0.774,0.956,0.417,0.443,0.194,0.665,0.252,0.016,0.206
0.604,0.989,0.785,0.935,0.976,0.100,0.601,0.379,0.056,0.576,0.858,0.074,0.288,0.995,0.822,0.670,0.769,0.765,0.965,0.605,0.969,0.814
0.032,0.176,0.977,0.223,0.845,0.189,0.815,0.717,0.592,0.684,0.154,0.270,0.077,0.639,0.967,0.240,0.306,0.193,0.966,0.210,0.339,0.054
0.517,0.819,0.476,0.773,0.816,0.740,0.481,0.314,0.832,0.854,0.580,0.850,0.363,0.803,0.173,0.076,0.337,0.324,0.262,0.440,0.711,0.133
0.275,0.755,0.921,0.068,0.335,0.896,0.964,0.086,0.966,0.212,0.478,0.109,0.824,0.516,0.175,0.417,0.953,0.340,0.911,0.301,0.475,0.295
0.502,0.436,0.514,0.951,0.364,0.594,0.358,0.706,0.242,0.526,0.294,0.202,0.142,0.581,0.149,0.057,0.917,0.055,0.974,0.793,0.025,0.291
0.748,0.350,0.415,0.735,0.699,0.613,0.702,0.591,0.489,0.249,0.588,0.496,0.746,0.986,0.569,0.939,0.917,0.201,0.327,0.703,0.887,0.126
0.316,0.655,0.785,0.378,0.418,0.686,0.965,0.040,0.663,0.804,0.644,0.538,0.758,0.032,0.894,0.629,0.717,0.608,0.556,0.955,0.381,0.027
0.876,0.933,0.103,0.840,0.894,0.297,0.539,0.016,0.864,0.405,0.924,0.793,0.463,0.871,0.417,0.930,0.071,0.607,0.523,0.012,0.235,0.358
0.483,0.746,0.087,0.036,0.266,0.648,0.782,0.198,0.352,0.866,0.412,0.248,0.937,0.013,0.105,0.116,0.428,0.474,0.554,0.667,0.153,0.350
0.593,0.873,0.685,0.126,0.735,0.907,0.240,0.292,0.301,0.822,0.921,0.125,0.196,0.374,0.748,0.133,0.211,0.491,0.023,0.476,0.582,0.452
0.368,0.695,0.304,0.892,0.877,0.129,0.962,0.152,0.864,0.662,0.079,0.835,0.570,0.652,0.500,0.369,0.691,0.853,0.399,0.650,0.947,0.836
0.953,0.301,0.777,0.495,0.337,0.774,0.058,0.077,0.310,0.925,0.689,0.101,0.036,0.355,0.348,0.100,0.118,0.388,0.628,0.984,0.821,0.787
0.665,0.354,0.615,0.857,0.435,0.523,0.969,0.017,0.616,0.811,0.515,0.624,0.114,0.956,0.167,0.456,0.467,0.504,0.383,0.235,0.664,0.866
0.369,0.040,0.933,0.307,0.277,0.213,0.350,0.359,0.909,0.030,0.173,0.487,0.070,0.718,0.318,0.791,0.223,0.911,0.951,0.984,0.981,0.228
0.808,0.639,0.854,0.604,0.021,0.800,0.181,0.809,0.165,0.346,0.437,0.730,0.044,0.753,0.866,0.421,0.079,0.510,0.765,0.554,0.681,0.020
0.584,0.246,0.103,0.367,0.199,0.580,0.154,0.702,0.069,0.759,0.936,0.937,0.414,0.899,0.525,0.680,0.853,0.106,0.200,0.326,0.277,0.199
0.942,0.565,0.284,0.063,0.984,0.476,0.571,0.997,0.309,0.311,0.688,0.879,0.432,0.722,0.214,0.254,0.002,0.763,0.888,0.863,0.761,0.755
0.944,0.215,0.590,0.563,0.145,0.833,0.438,0.227,0.252,0.289,0.506,0.924,0.495,0.542,0.876,0.950,0.509,0.592,0.046,0.975,0.135,0.127
0.069,0.032,0.340,0.066,0.302,0.593,0.833,0.709,0.968,0.865,0.828,0.849,0.008,0.306,0.284,0.907,0.493,0.044,0.130,0.643,0.729,0.335
0.511,0.136,0.527,0.210,0.345,0.672,0.132,0.823,0.367,0.020,0.462,0.732,0.069,0.470,0.981,0.052,0.204,0.719,0.358,0.428,0.666,0.879
0.612,0.434,0.201,0.906,0.422,0.917,0.231,0.861,0.985,0.017,0.071,0.008,0.553,0.391,0.608,0.513,0.851,0.366,0.216,0.245,0.435,0.271
0.266,0.688,0.668,0.642,0.339,0.765,0.386,0.698,0.320,0.484,0.553,0.404,0.976,0.330,0.676,0.177,0.523,0.573,0.572,0.020,0.497,0.831
0.914,0.835,0.292,0.661,0.451,0.527,0.472,0.307,0.886,0.253,0.213,0.970,0.633,0.190,0.966,0.975,0.422,0.572,0.155,0.322,0.069,0.662
0.448,0.059,0.437,0.142,0.245,0.258,0.105,0.784,0.194,0.022,0.175,0.804,0.271,0.728,0.826,0.878,0.927,0.734,0.828,0.465,0.246,0.498
0.011,0.963,0.766,0.273,0.986,0.292,0.857,0.016,0.568,0.736,0.003,0.911,0.094,0.157,0.884,0.267,0.465,0.349,0.810,0.561,0.835,0.332
0.420,0.801,0.898,0.857,0.372,0.813,0.303,0.753,0.358,0.122,0.122,0.803,0.073,0.205,0.492,0.706,0.294,0.787,0.739,0.301,0.568,0.765
0.386,0.318,0.749,0.164,0.885,0.577,0.746,0.630,0.981,0.830,0.397,0.609,0.050,0.949,0.858,0.607,0.295,0.667,0.150,0.644,0.335,0.052
0.225,0.526,0.541,0.354,0.597,0.058,0.044,0.046,0.452,0.095,0.965,0.077,0.800,0.269,0.397,0.007,0.667,0.044,0.736,0.257,0.654,0.331
0.923,0.501,0.631,0.469,0.822,0.940,0.225,0.633,0.792,0.770,0.099,0.876,0.581,0.293,0.477,0.638,0.699,0.622,0.628,0.537,0.517,0.827
0.678,0.392,0.018,0.632,0.679,0.594,0.037,0.456,0.893,0.524,0.962,0.414,0.161,0.963,0.144,0.217,0.663,0.704,0.818,0.662,0.007,0.963
0.803,0.037,0.806,0.559,0.463,0.435,0.216,0.947,0.435,0.740,0.752,0.599,0.557,0.720,0.763,0.598,0.371,0.794,0.586,0.572,0.274,0.824
0.559,0.643,0.995,0.496,0.267,0.778,0.326,0.008,0.133,0.104,0.463,0.671,0.179,0.792,0.571,0.959,0.799,0.007,0.708,0.736,0.806,0.208
0.507,0.077,0.123,0.719,0.507,0.825,0.756,0.669,0.473,0.474,0.178,0.241,0.215,0.940,0.376,0.984,0.146,0.398,0.847,0.647,0.061,0.440
0.130,0.112,0.034,0.359,0.066,0.631,0.777,0.763,0.910,0.856,0.401,0.364,0.328,0.638,0.184,0.819,0.041,0.227,0.901,0.985,0.522,0.018
0.414,0.083,0.969,0.818,0.928,0.935,0.374,0.865,0.011,0.912,0.258,0.738,0.630,0.293,0.016,0.701,0.820,0.218,0.071,0.868,0.799,0.769
0.260,0.557,0.416,0.644,0.870,0.244,0.764,0.527,0.268,0.808,0.883,0.627,0.746,0.328,0.158,0.260,0.709,0.649,0.989,0.237,0.197,0.785
0.348,0.006,0.781,0.981,0.935,0.277,0.762,0.329,0.274,0.803,0.743,0.914,0.733,0.996,0.246,0.122,0.871,0.373,0.723,0.208,0.151,0.628
0.385,0.644,0.284,0.241,0.356,0.883,0.356,0.718,0.419,0.348,0.894,0.439,0.620,0.769,0.582,0.356,0.122,0.512,0.106,0.129,0.344,0.351
0.230,0.700,0.404,0.007,0.826,0.294,0.038,0.298,0.743,0.102,0.219,0.418,0.379,0.047,0.562,0.297,0.722,0.721,0.384,0.288,0.016,0.238
0.667,0.177,0.286,0.452,0.340,0.944,0.628,0.319,0.784,0.552,0.057,0.756,0.737,0.909,0.489,0.296,0.263,0.860,0.722,0.401,0.149,0.596
0.991,0.215,0.066,0.107,0.989,0.497,0.033,0.748,0.485,0.112,0.159,0.276,0.358,0.790,0.217,0.758,0.861,0.959,0.646,0.702,0.332,0.540
0.746,0.126,0.739,0.971,0.465,0.988,0.108,0.303,0.799,0.382,0.548,0.187,0.931,0.791,0.475,0.037,0.057,0.863,0.274,0.384,0.006,0.213
0.248,0.287,0.160,0.870,0.615,0.894,0.696,0.491,0.538,0.748,0.540,0.412,0.549,0.068,0.360,0.189,0.340,0.144,0.283,0.802,0.195,0.204
0.792,0.672,0.825,0.527,0.339,0.551,0.414,0.369,0.330,0.174,0.289,0.248,0.249,0.892,0.584,0.656,0.943,0.772,0.664,0.066,0.440,0.138
0.468,0.394,0.299,0.305,0.309,0.946,0.103,0.940,0.050,0.189,0.891,0.604,0.030,0.028,0.433,0.971,0.898,0.103,0.911,0.046,0.940,0.494
0.779,0.711,0.976,0.148,0.241,0.018,0.386,0.042,0.814,0.023,0.450,0.341,0.272,0.572,0.613,0.642,0.082,0.828,0.143,0.206,0.319,0.093
0.184,0.075,0.057,0.482,0.564,0.546,0.609,0.858,0.059,0.407,0.768,0.987,0.303,0.503,0.807,0.657,0.778,0.850,0.176,0.732,0.293,0.830
0.574,0.872,0.918,0.364,0.584,0.042,0.705,0.377,0.230,0.088,0.605,0.394,0.307,0.253,0.757,0.647,0.914,0.056,0.165,0.340,0.164,0.465
0.625,0.192,0.578,0.333,0.788,0.655,0.744,0.823,0.739,0.605,0.651,0.236,0.216,0.516,0.475,0.573,0.043,0.678,0.523,0.572,0.183,0.920
0.326,0.866,0.286,0.048,0.124,0.096,0.830,0.435,0.817,0.064,0.945,0.543,0.069,0.392,0.711,0.620,0.141,0.885,0.476,0.411,0.672,0.500
0.559,0.431,0.217,0.030,0.839,0.982,0.357,0.000,0.780,0.271,0.682,0.747,0.722,0.396,0.836,0.957,0.250,0.724,0.125,0.026,0.227,0.123
0.006,0.444,0.956,0.432,0.099,0.498,0.552,0.804,0.299,0.874,0.117,0.031,0.426,0.165,0.830,0.069,0.875,0.904,0.305,0.403,0.461,0.278
0.757,0.752,0.338,0.722,0.457,0.043,0.012,0.115,0.390,0.212,0.615,0.397,0.300,0.338,0.405,0.677,0.682,0.146,0.932,0.966,0.147,0.894
0.597,0.187,0.117,0.583,0.218,0.275,0.154,0.396,0.411,0.816,0.870,0.078,0.732,0.155,0.423,0.988,0.748,0.230,0.235,0.863,0.046,0.219
0.862,0.347,0.929,0.586,0.776,0.961,0.895,0.748,0.345,0.284,0.876,0.784,0.915,0.057,0.993,0.717,0.252,0.282,0.391,0.080,0.790,0.658
0.594,0.238,0.438,0.263,0.001,0.938,0.706,0.864,0.256,0.987,0.842,0.944,0.933,0.340,0.821,0.632,0.974,0.454,0.970,0.339,0.993,0.364
0.449,0.903,0.096,0.074,0.551,0.702,0.667,0.317,0.626,0.710,0.410,0.612,0.882,0.094,0.017,0.027,0.586,0.023,0.062,0.264,0.635,0.164
0.976,0.707,0.503,0.252,0.758,0.136,0.995,0.796,0.674,0.306,1.000,0.155,0.202,0.767,0.292,0.409,0.664,0.167,0.493,0.099,0.045,0.428
0.066,0.212,0.597,0.746,0.224,0.308,0.749,0.086,0.733,0.287,0.727,0.066,0.417,0.666,0.869,0.504,0.765,0.841,0.605,0.573,0.795,0.151
0.318,0.106,0.947,0.345,0.296,0.668,0.296,0.239,0.958,0.347,0.675,0.285,0.781,0.336,0.755,0.756,0.092,0.491,0.310,0.561,0.243,0.824
0.568,0.414,0.708,0.940,0.480,0.583,0.617,0.599,0.523,0.774,0.803,0.714,0.630,0.367,0.607,0.050,0.528,0.236,0.300,0.949,0.267,0.819
0.496,0.897,0.822,0.304,0.962,0.107,0.071,0.130,0.326,0.995,0.345,0.747,0.418,0.408,0.100,0.054,0.472,0.615,0.931,0.624,0.934,0.852
0.835,0.850,0.785,0.598,0.916,0.550,0.761,0.760,0.389,0.885,0.155,0.628,0.129,0.124,0.602,0.947,0.305,0.744,0.671,0.631,0.685,0.918
0.838,0.826,0.999,0.048,0.804,0.170,0.897,0.488,0.139,1.000,0.622,0.552,0.877,0.584,0.787,0.894,0.480,0.637,0.553,0.567,0.384,0.791
0.008,0.190,0.335,0.402,0.383,0.083,0.286,0.863,0.797,0.010,0.900,0.199,0.711,0.796,0.674,0.500,0.501,0.835,0.043,0.337,0.531,0.634
0.432,0.396,0.614,0.420,0.012,0.545,0.756,0.017,0.487,0.545,0.892,0.164,0.833,0.987,0.477,0.365,0.981,0.114,0.343,0.047,0.856,0.216
0.603,0.687,0.052,0.062,0.882,0.071,0.596,0.147,0.474,0.054,0.587,0.475,0.931,0.283,0.371,0.316,0.106,0.788,0.653,0.034,0.973,0.120
0.544,0.416,0.925,0.808,0.654,0.311,0.174,0.160,0.929,0.426,0.270,0.984,0.766,0.125,0.063,0.632,0.707,0.803,0.147,0.564,0.133,0.488
0.614,0.315,0.817,0.764,0.527,0.032,0.016,0.772,0.846,0.442,0.094,0.527,0.363,0.370,0.533,0.007,0.196,0.126,0.278,0.507,0.607,0.863
0.262,0.794,0.098,0.016,0.124,0.161,0.266,0.248,0.756,0.283,0.765,0.236,0.112,0.990,0.456,0.896,0.563,0.814,0.104,0.047,0.072,0.035
0.516,0.910,0.351,0.837,0.991,0.524,0.473,0.838,0.616,0.943,0.762,0.793,0.557,0.566,0.719,0.418,0.930,0.388,0.308,0.631,0.316,0.154
0.340,0.645,0.627,0.149,0.659,0.641,0.735,0.526,0.931,0.805,0.066,0.427,0.655,0.001,0.443,0.093,0.314,0.399,0.121,0.188,0.075,0.295
0.862,0.674,0.739,0.624,0.395,0.499,0.769,0.926,0.598,0.222,0.785,0.116,0.884,0.479,0.245,0.813,0.092,0.875,0.321,0.965,0.179,0.388
0.523,0.946,0.592,0.633,0.257,0.029,0.208,0.594,0.306,0.802,0.794,0.695,0.579,0.300,0.129,0.215,0.014,0.417,0.077,0.738,0.295,0.210
0.228,0.055,0.909,1.000,0.230,0.866,0.007,0.514,0.533,0.718,0.561,0.355,0.879,0.264,0.895,0.537,0.482,0.652,0.790,0.528,0.611,0.566
0.466,0.452,0.515,0.413,0.909,0.828,0.619,0.410,0.849,0.934,0.716,0.301,0.694,0.720,0.035,0.420,0.206,0.277,0.237,0.408,0.459,0.090
0.450,0.051,0.383,0.445,0.501,0.134,0.636,0.533,0.557,0.768,0.125,0.306,0.793,0.975,0.667,0.951,0.300,0.536,0.464,0.340,0.225,0.665
0.433,0.551,0.329,0.349,0.222,0.004,0.166,0.318,0.220,0.212,0.955,0.944,0.711,0.596,0.988,0.035,0.629,0.200,0.524,0.973,0.726,0.875
0.621,0.175,0.344,0.582,0.313,0.096,0.932,0.027,0.049,0.403,0.122,0.920,0.469,0.018,0.538,0.234,0.849,0.910,0.940,0.216,0.414,0.909
0.287,0.718,0.123,0.270,0.851,0.949,0.928,0.410,0.989,0.025,0.072,0.975,0.851,0.023,0.406,0.808,0.850,0.364,0.113,0.642,0.557,0.122
0.933,0.202,0.000,0.274,0.973,0.609,0.278,0.448,0.739,0.315,0.531,0.114,0.917,0.630,0.402,0.262,0.779,0.402,0.807,0.465,0.994,0.858
0.150,0.910,0.341,0.678,0.045,0.669,0.486,0.759,0.631,0.790,0.350,0.188,0.717,0.436,0.654,0.571,0.998,0.268,0.514,0.604,0.806,0.124
0.576,0.014,0.260,0.971,0.746,0.471,0.965,0.907,0.874,0.442,0.131,0.162,0.171,0.394,0.593,0.488,0.709,0.973,0.860,0.651,0.237,0.677
0.929,0.667,0.401,0.595,0.498,0.422,0.237,0.007,0.888,0.835,0.595,0.151,0.704,0.934,0.308,0.832,0.293,0.965,0.149,0.455,0.734,0.606
0.850,0.436,0.201,0.032,0.250,0.923,0.742,0.875,0.297,0.353,0.269,0.892,0.788,0.101,0.233,0.753,0.958,0.904,0.759,0.644,0.862,0.075
0.550,0.645,0.512,0.934,0.284,0.615,0.486,0.892,0.340,0.471,0.066,0.726,0.181,0.371,0.533,0.366,0.128,0.381,0.817,0.658,0.732,0.988
0.285,0.002,0.800,0.818,0.306,0.575,0.591,0.477,0.329,0.284,0.938,0.682,0.811,0.280,0.831,0.675,0.031,0.601,0.135,0.779,0.775,0.847
0.162,0.835,0.370,0.594,0.788,0.566,0.475,1.000,0.275,0.189,0.260,0.431,0.069,0.442,0.019,0.566,0.944,0.092,0.956,0.976,0.364,0.169
0.069,0.471,0.365,0.150,0.940,0.831,0.590,0.312,0.730,0.374,0.733,0.150,0.174,0.292,0.146,0.417,0.901,0.574,0.953,0.807,0.487,0.153
0.148,0.859,0.123,0.519,0.110,0.596,0.025,0.247,0.694,0.459,0.163,0.015,0.761,0.951,0.774,0.097,0.443,0.092,0.367,0.162,0.683,0.396
0.959,0.245,0.594,0.814,0.004,0.888,0.124,0.917,0.247,0.213,0.845,0.548,0.382,0.313,0.050,0.546,0.716,0.972,0.908,0.065,0.258,0.091
0.565,0.222,0.927,0.923,0.175,0.103,0.528,0.171,0.731,0.742,0.528,0.868,0.792,0.970,0.683,0.207,0.313,0.700,0.068,0.361,0.623,0.246
0.004,0.910,0.490,0.524,0.010,0.274,0.671,0.401,0.213,0.283,0.429,0.852,0.721,0.467,0.915,0.778,0.646,0.350,0.832,0.260,0.355,0.054
0.803,0.234,0.523,0.652,0.055,0.175,0.505,0.346,0.293,0.759,0.820,0.358,0.626,0.893,0.456,0.061,0.943,0.530,0.989,0.906,0.873,0.358
0.005,0.146,0.747,0.375,0.143,0.016,0.981,0.820,0.166,0.408,0.795,0.152,0.392,0.738,0.607,0.037,0.430,0.650,0.119,0.408,0.553,0.409
0.561,0.033,0.094,0.982,0.715,0.488,0.204,0.346,0.254,0.614,0.375,0.540,0.769,0.592,0.262,0.581,0.972,0.404,0.228,0.440,0.876,0.348
0.295,0.737,0.955,0.664,0.678,0.818,0.275,0.666,0.804,0.444,0.468,0.371,0.252,0.615,0.857,0.901,0.935,0.451,0.811,0.503,0.276,0.561
0.355,0.101,0.283,0.105,0.399,0.754,0.767,0.199,0.527,0.806,0.768,0.641,0.697,0.044,0.008,0.451,0.975,0.823,0.723,0.501,0.553,0.726
0.932,0.762,0.811,0.425,0.059,0.717,0.143,0.589,0.433,0.465,0.629,0.738,0.604,0.130,0.581,0.707,0.754,0.445,0.162,0.789,0.170,0.551
0.476,0.647,0.719,0.435,0.898,0.305,0.854,0.783,0.844,0.120,0.025,0.876,0.004,0.191,0.065,0.467,0.099,0.328,0.762,0.533,0.230,0.606
0.425,0.316,0.979,0.454,0.188,0.526,0.367,0.012,0.358,0.589,0.207,0.658,0.337,0.616,0.383,0.830,0.413,0.693,0.909,0.641,0.448,0.029
0.477,0.275,0.043,0.566,0.073,0.785,0.485,0.304,0.256,0.455,0.424,0.828,0.946,0.497,0.381,0.759,0.866,0.272,0.109,0.005,0.303,0.059
0.852,0.490,0.031,0.788,0.719,0.243,0.196,0.639,0.383,0.077,0.592,0.740,0.762,0.445,0.370,0.905,0.428,0.045,0.973,0.680,0.246,0.117
0.353,0.834,0.599,0.313,0.428,0.226,0.845,0.284,0.152,0.846,0.300,0.559,0.256,0.720,0.052,0.116,0.847,0.383,0.930,0.162,0.271,0.292
0.777,0.399,0.402,0.978,0.729,0.871,0.897,0.955,0.964,0.051,0.500,0.848,0.643,0.973,0.553,0.944,0.677,0.061,0.773,0.673,0.705,0.141
0.076,0.966,0.997,0.064,0.228,0.622,0.784,0.005,0.788,0.106,0.725,0.789,0.697,0.214,0.160,0.772,0.346,0.116,0.020,0.498,0.538,0.515
0.005,0.736,0.665,0.781,0.011,0.571,0.041,0.511,0.865,0.819,0.613,0.853,0.663,0.029,0.982,0.938,0.073,0.563,0.261,0.422,0.628,0.094
0.897,0.069,0.807,0.880,0.335,0.375,0.028,0.549,0.087,0.454,0.206,0.379,0.218,0.801,0.309,0.433,0.987,0.875,0.174,0.226,0.315,0.448
0.685,0.254,0.325,0.669,0.688,0.258,0.130,0.460,0.179,0.640,0.574,0.398,0.729,0.699,0.919,0.714,0.114,0.869,0.352,0.129,0.497,0.826
0.510,0.422,0.240,0.535,0.297,0.960,0.651,0.837,0.359,0.169,0.428,0.465,0.515,0.827,0.378,0.921,0.298,0.903,0.706,0.094,0.225,0.564
0.260,0.325,0.192,0.638,0.481,0.198,0.046,0.160,0.173,0.893,0.631,0.155,0.843,0.130,0.002,0.359,0.683,0.476,0.326,0.803,0.926,0.073
0.607,0.356,0.574,0.124,0.158,0.681,0.678,0.015,0.137,0.067,0.139,0.962,0.647,0.670,0.399,0.315,0.040,0.557,0.998,0.591,0.497,0.662
0.600,0.847,0.174,0.172,0.314,0.724,0.921,0.636,0.205,0.373,0.626,0.652,0.756,0.866,0.975,0.560,0.632,0.674,0.194,0.395,0.232,0.893
0.238,0.596,0.411,0.292,0.750,0.894,0.826,0.486,0.514,0.974,0.637,0.670,0.129,0.086,0.076,0.774,0.841,0.022,0.683,0.202,0.611,0.982
0.285,0.861,0.695,0.823,0.131,0.465,0.344,0.588,0.793,0.625,0.738,0.159,0.052,0.915,0.187,0.572,0.076,0.252,0.823,0.070,0.710,0.005
0.237,0.341,0.339,0.581,0.501,0.584,0.861,0.816,0.046,0.317,0.367,0.539,0.166,0.784,0.030,0.116,0.322,0.858,0.419,0.596,0.094,0.274
0.970,0.602,0.221,0.568,0.729,0.016,0.893,0.303,0.543,0.957,0.888,0.421,0.338,0.900,0.588,0.146,0.058,0.036,0.793,0.147,0.131,0.278
0.519,0.334,0.565,0.410,0.297,0.574,0.691,0.370,0.387,0.105,0.040,0.536,0.024,0.150,0.098,0.053,0.965,0.597,0.021,0.054,0.924,0.139
0.208,0.397,0.775,0.290,0.998,0.214,0.027,0.887,0.637,0.350,0.525,0.271,0.784,0.955,0.157,0.140,0.860,0.124,0.640,0.627,0.574,0.192
0.282,0.017,0.190,0.321,0.184,0.502,0.509,0.317,0.537,0.495,0.416,0.785,0.120,0.428,0.731,0.538,0.576,0.788,0.973,0.759,0.842,0.744
0.420,0.403,0.131,0.384,0.145,0.454,0.077,0.963,0.236,0.375,0.500,0.292,0.197,0.619,0.533,0.346,0.321,0.350,0.030,0.408,0.754,0.454
0.768,0.195,0.853,0.511,0.267,0.090,0.474,0.453,0.852,0.949,0.131,0.534,0.992,0.336,0.785,0.735,0.182,0.891,0.102,0.177,0.987,0.380
0.959,0.383,0.875,0.905,0.865,0.444,0.442,0.511,0.863,0.209,0.036,0.728,0.313,0.816,0.910,0.587,0.959,0.143,0.014,0.488,0.254,0.253
0.569,0.755,0.767,0.217,0.030,0.579,0.669,0.024,0.913,0.894,0.844,0.420,0.302,0.651,0.352,0.510,0.614,0.796,0.349,0.186,0.074,0.223
0.729,0.413,0.773,0.968,0.329,0.721,0.811,0.967,0.816,0.638,0.590,0.268,0.177,0.504,0.267,0.583,0.058,0.760,0.403,0.276,0.905,0.024
0.836,0.280,0.438,0.254,0.593,0.633,0.052,0.540,0.423,0.730,0.805,0.006,0.297,0.241,0.221,0.408,0.500,0.214,0.711,0.708,0.935,0.195
0.891,0.705,0.144,0.183,0.043,0.845,0.266,0.926,0.445,0.870,0.278,0.861,0.748,0.815,0.283,0.446,0.924,0.546,0.436,0.532,0.162,0.025
0.629,0.477,0.152,0.324,0.469,0.819,0.056,0.798,0.028,0.340,0.316,0.898,0.797,0.150,0.051,0.626,0.155,0.592,0.820,0.417,0.279,0.596
0.951,0.666,0.558,0.377,0.361,0.861,0.641,0.904,0.633,0.469,0.829,0.999,0.936,0.507,0.268,0.792,0.904,0.739,0.956,0.676,0.448,0.621
0.506,0.469,0.111,0.682,0.620,0.435,0.272,0.037,0.669,0.735,0.829,0.945,0.902,0.426,0.149,0.221,0.414,0.356,0.164,0.868,0.254,0.363
0.646,0.679,0.342,0.760,0.858,0.372,0.580,0.045,0.178,0.262,0.275,0.922,0.259,0.925,0.393,0.677,0.459,0.552,0.450,0.528,0.741,0.470
0.957,0.181,0.274,0.991,0.131,0.602,0.113,0.581,0.617,0.066,0.533,0.568,0.951,0.907,0.948,0.403,0.843,0.400,0.021,0.629,0.313,0.174
0.781,0.469,0.529,0.159,0.452,0.072,0.467,0.357,0.446,0.633,0.690,0.826,0.909,0.905,0.150,0.218,0.490,0.608,0.952,0.016,0.541,0.039
0.187,0.434,0.011,0.360,0.642,0.386,0.226,0.063,0.065,0.457,0.163,0.639,0.104,0.797,0.681,0.126,0.395,0.298,0.828,0.300,0.069,0.470
0.208,0.652,0.199,0.442,0.233,0.048,0.190,0.564,0.435,0.766,0.628,0.021,0.294,0.536,0.216,0.222,0.085,0.112,0.746,0.324,0.977,0.536
0.228,0.448,0.020,0.298,0.268,0.448,0.291,0.845,0.453,0.118,0.149,0.574,0.014,0.442,0.872,0.747,0.516,0.101,0.265,0.530,0.654,0.967
0.649,0.588,0.715,0.226,0.196,0.634,0.859,0.051,0.097,0.318,0.081,0.198,0.626,0.614,0.957,0.724,0.231,0.478,0.462,0.557,0.802,0.147
0.599,0.956,0.706,0.805,0.732,0.373,0.349,0.494,0.498,0.779,0.290,0.694,0.914,0.876,0.907,0.061,0.593,0.323,0.385,0.534,0.389,0.220
0.465,0.218,0.522,0.431,0.810,0.988,0.242,0.756,0.330,0.188,0.412,0.039,0.733,0.975,0.583,0.636,0.602,0.802,0.963,0.337,0.997,0.077
0.020,0.391,0.889,0.531,0.933,0.711,0.817,0.117,0.339,0.736,0.365,0.670,0.596,0.266,0.093,0.502,0.778,0.566,0.560,0.742,0.206,0.517
0.342,0.713,0.374,0.845,0.703,0.116,0.451,0.041,0.505,0.735,0.544,0.280,0.814,0.702,0.174,0.651,0.078,0.387,0.944,0.012,0.974,0.802
0.444,0.364,0.573,0.173,0.276,0.145,0.940,0.940,0.989,0.881,0.932,0.286,0.842,0.950,0.992,0.397,0.968,0.256,0.421,0.179,0.420,0.023
0.957,0.505,0.505,0.352,0.137,0.329,0.117,0.555,0.172,0.912,0.447,0.005,0.281,0.226,0.423,0.590,0.456,0.547,0.665,0.008,0.774,0.146
0.885,0.652,0.274,0.626,0.656,0.517,0.460,0.451,0.204,0.264,0.620,0.081,0.725,0.427,0.417,0.805,0.547,0.968,0.634,0.584,0.961,0.473
0.582,0.423,0.295,0.732,0.496,0.809,0.014,0.373,0.728,0.427,0.001,0.109,0.761,0.714,0.937,0.147,0.672,0.912,0.908,0.552,0.745,0.255
0.038,0.736,0.993,0.847,0.017,0.380,0.151,0.259,0.870,0.854,0.649,0.358,0.388,0.335,0.181,0.187,0.480,0.675,0.499,0.768,0.071,0.658
0.633,0.845,0.361,0.011,0.946,0.147,0.971,0.749,0.310,0.207,0.648,0.747,0.414,0.344,0.440,0.430,0.421,0.096,0.520,0.752,0.065,0.940
0.525,0.752,0.731,0.935,0.083,0.132,0.899,0.121,0.348,0.440,0.692,0.244,0.157,0.972,0.139,0.588,0.319,0.883,0.251,0.219,0.500,0.882
0.064,0.558,0.199,0.294,0.999,0.295,0.488,0.262,0.847,0.817,0.499,0.963,0.671,0.883,0.450,0.696,0.362,0.405,0.242,0.286,0.940,0.438
0.138,0.374,0.466,0.329,0.020,0.774,0.841,0.960,0.156,0.413,0.144,0.911,0.478,0.475,0.403,0.395,0.390,0.290,0.534,0.820,0.182,0.646
0.157,0.054,0.540,0.030,0.851,0.348,0.349,0.411,0.454,0.131,0.139,0.231,0.757,0.920,0.212,0.956,0.151,0.847,0.033,0.288,0.231,0.307
0.145,0.325,0.197,0.911,0.699,0.819,0.957,0.733,0.019,0.472,0.770,0.429,0.099,0.898,0.796,0.776,0.814,0.309,0.028,0.289,0.902,0.363
0.173,0.554,0.507,0.842,0.707,0.916,0.623,0.768,0.676,0.331,0.209,0.429,0.754,0.695,0.399,0.704,0.023,0.362,0.850,0.724,0.292,0.803
0.706,0.876,0.389,0.046,0.512,0.169,0.618,0.277,0.349,0.494,0.707,0.503,0.082,0.441,0.280,0.710,0.012,0.789,0.232,0.294,0.648,0.123
0.285,0.140,0.611,0.406,0.248,0.488,0.090,0.431,0.637,0.411,0.236,0.722,0.848,0.636,0.548,0.609,0.503,0.184,0.003,0.060,0.713,0.068
0.342,0.377,0.995,0.407,0.990,0.415,0.176,0.491,0.410,0.406,0.592,0.410,0.696,0.584,0.189,0.595,0.358,0.360,0.133,0.006,0.749,0.416
0.306,0.314,0.645,0.460,0.791,0.829,0.291,0.049,0.497,0.940,0.978,0.064,0.506,0.872,0.717,0.276,0.167,0.660,0.388,0.392,0.051,0.606
0.825,0.520,0.731,0.596,0.011,0.010,0.719,0.790,0.194,0.860,0.644,0.229,0.350,0.580,0.385,0.729,0.304,0.456,0.271,0.496,0.117,0.949
0.466,0.172,0.550,0.555,0.054,0.572,0.485,0.533,0.002,0.842,0.551,0.950,0.473,0.432,0.024,0.391,0.080,0.300,0.096,0.903,0.273,0.599
0.154,0.900,0.435,0.890,0.450,0.505,0.854,0.244,0.016,0.373,0.291,0.155,0.882,0.979,0.809,0.323,0.977,0.549,0.860,0.419,0.673,0.697
0.287,0.778,0.581,0.501,0.131,0.019,0.459,0.881,0.317,0.984,0.401,0.878,0.233,0.800,0.326,0.032,0.329,0.855,0.308,0.311,0.863,0.410
0.863,0.350,0.147,0.414,0.297,0.139,0.735,0.895,0.189,0.816,0.292,0.204,0.945,0.387,0.853,0.283,0.685,0.870,0.385,0.857,0.261,0.566
0.280,0.959,0.455,0.643,0.351,0.863,0.709,0.908,0.742,0.368,0.160,0.827,0.708,0.664,0.252,0.929,0.827,0.500,0.237,0.023,0.251,0.073
0.925,0.757,0.512,0.358,0.457,0.828,0.400,0.098,0.378,0.377,0.107,0.631,0.041,0.605,0.650,0.146,0.101,0.142,0.424,0.280,0.737,0.231
0.338,0.146,0.008,0.236,0.885,0.975,0.428,0.081,0.605,0.943,0.506,0.026,0.011,0.893,0.483,0.439,0.132,0.362,0.844,0.144,0.288,0.320
0.227,0.326,0.100,0.936,0.390,0.136,0.748,0.959,0.507,0.756,0.076,0.185,0.628,0.101,0.067,0.773,0.579,0.796,0.434,0.120,0.013,0.456
0.787,0.051,0.448,0.836,0.782,0.525,0.562,0.386,0.804,0.610,0.185,0.408,0.943,0.164,0.020,0.464,0.063,0.863,0.117,0.162,0.820,0.499
0.284,0.239,0.406,0.810,0.230,0.340,0.645,0.009,0.708,0.449,0.259,0.119,0.865,0.387,0.510,0.504,0.793,0.530,0.673,0.098,0.813,0.234
0.635,0.272,0.723,0.457,0.104,0.536,0.235,0.834,0.149,0.359,0.271,0.435,0.005,0.225,0.121,0.620,0.150,0.633,0.909,0.959,0.573,0.932
0.090,0.843,0.721,0.995,0.300,0.833,0.449,0.482,0.865,0.240,0.255,0.813,0.905,0.721,0.867,0.850,0.879,0.738,0.289,0.120,0.367,0.102
0.821,0.267,0.606,0.561,0.984,0.263,0.041,0.462,0.562,0.365,0.802,0.753,0.024,0.743,0.910,0.459,0.180,0.308,0.857,0.092,0.145,0.934
0.161,0.807,0.304,0.483,0.609,0.315,0.041,0.515,0.866,0.830,0.979,0.039,0.231,0.247,0.129,0.961,0.060,0.483,0.800,0.871,0.727,0.595
0.374,0.210,0.500,0.310,0.040,0.243,0.525,0.202,0.118,0.002,0.744,0.528,0.933,0.265,0.372,0.848,0.726,0.996,0.817,0.876,0.686,0.340
0.132,0.044,0.775,0.370,0.693,0.625,0.437,0.852,0.199,0.706,0.631,0.349,0.931,0.924,0.001,0.547,0.681,0.648,0.597,0.604,0.682,0.980
0.208,0.490,0.713,0.839,0.810,0.989,0.002,0.736,0.809,0.492,0.450,0.065,0.840,0.726,0.912,0.598,0.268,0.805,0.460,0.302,0.322,0.857
0.861,0.451,0.997,0.677,0.227,0.780,0.972,0.573,0.719,0.118,0.153,0.663,0.862,0.968,0.152,0.460,0.416,0.736,0.956,0.440,0.409,0.231
0.351,0.052,0.022,0.211,0.572,0.925,0.618,0.489,0.974,0.176,0.729,0.120,0.329,0.277,0.484,0.312,0.045,0.988,0.337,0.368,0.664,0.694
0.433,0.674,0.102,0.561,0.731,0.533,0.140,0.536,0.146,0.622,0.909,0.061,0.915,0.131,0.972,0.302,0.314,0.352,0.867,0.782,0.696,0.034
0.228,0.010,0.419,0.784,0.961,0.270,0.843,0.858,0.664,0.095,0.883,0.691,0.199,0.982,0.664,0.903,0.513,0.329,0.476,0.585,0.081,0.978
0.910,0.233,0.396,0.481,0.429,0.372,0.522,0.988,0.307,0.593,0.078,0.566,0.328,0.307,0.631,0.371,0.759,0.975,0.661,0.571,0.538,0.764
0.733,0.828,0.127,0.233,0.009,0.636,0.108,0.864,0.744,0.963,0.237,0.105,0.537,0.019,0.088,0.262,0.859,0.111,0.920,0.892,0.376,0.668
0.770,0.163,0.612,0.088,0.277,0.360,0.677,0.712,0.423,0.296,0.723,0.603,0.111,0.365,0.401,0.166,0.052,0.993,0.103,0.612,0.746,0.902
0.661,0.999,0.695,0.621,0.369,0.902,0.741,0.822,0.709,0.003,0.839,0.750,0.382,0.640,0.867,0.749,0.631,0.465,0.198,0.947,0.672,0.513
0.847,0.888,0.032,0.073,0.644,0.160,0.493,0.396,0.384,0.989,0.034,0.326,0.003,0.828,0.886,0.254,0.300,0.328,0.938,0.148,0.864,0.175
0.501,0.821,0.454,0.028,0.371,0.420,0.609,0.105,0.086,0.272,0.884,0.142,0.995,0.407,0.917,0.139,0.096,0.429,0.992,0.402,0.435,0.582
0.589,0.228,0.369,0.808,0.791,0.240,0.394,0.631,0.394,0.433,0.707,0.757,0.989,0.288,0.393,0.432,0.421,0.944,0.178,0.710,0.866,0.337
0.705,0.553,0.224,0.340,0.419,0.783,0.316,0.069,0.558,0.287,0.777,0.534,0.513,0.127,0.485,0.897,0.834,0.990,0.233,0.229,0.452,0.587
0.577,0.535,0.538,0.329,0.474,0.254,0.276,0.458,0.237,0.385,0.711,0.580,0.517,0.907,0.966,0.256,0.145,0.356,0.593,0.628,0.522,0.488
0.262,0.882,0.582,0.401,0.269,0.501,0.785,0.092,0.064,0.334,0.149,0.300,0.958,0.957,0.472,0.216,0.336,0.023,0.035,0.318,0.817,0.231
0.072,0.996,0.116,0.506,0.036,0.996,0.800,0.352,0.968,0.606,0.460,0.995,0.304,0.718,0.320,0.865,0.645,0.101,0.338,0.519,0.911,0.707
0.583,0.538,0.029,0.127,0.025,0.384,0.365,0.688,0.495,0.060,0.213,0.858,0.476,0.965,0.475,0.118,0.136,0.827,0.807,0.598,0.455,0.932
0.196,0.091,0.890,0.200,0.175,0.927,0.824,0.260,0.936,0.871,0.772,0.969,0.210,0.002,0.425,0.846,0.849,0.681,0.866,0.931,0.774,0.708
0.052,0.908,0.600,0.568,0.471,0.684,0.884,0.026,0.105,0.605,0.462,0.245,0.233,0.542,0.860,0.287,0.680,0.428,0.643,0.936,0.874,0.897
0.698,0.236,0.382,0.179,0.169,0.466,0.563,0.517,0.283,0.803,0.245,0.954,0.987,0.385,0.574,0.677,0.159,0.907,0.946,0.048,0.293,0.532
0.021,0.748,0.491,0.118,0.945,0.564,0.703,0.155,0.187,0.850,0.512,0.902,0.334,0.630,0.688,0.237,0.021,0.514,0.808,0.602,0.969,0.767
0.395,0.975,0.465,0.305,0.716,0.609,0.611,0.879,0.689,0.974,0.774,0.742,0.681,0.904,0.268,0.719,0.187,0.972,0.384,0.530,0.700,0.374
0.041,0.222,0.118,0.107,0.883,0.839,0.833,0.761,0.915,0.341,0.001,0.264,0.565,0.540,0.632,0.215,0.912,0.184,0.466,0.085,0.772,0.164
0.483,0.038,0.644,0.761,0.466,0.231,0.900,0.472,0.928,0.684,0.041,0.518,0.847,0.715,0.425,0.799,0.772,0.460,0.738,0.076,0.380,0.916
0.838,0.232,0.540,0.635,0.545,0.777,0.661,0.611,0.808,0.527,0.860,0.493,0.320,0.459,0.517,0.772,0.956,0.018,0.165,0.727,0.788,0.634
0.184,0.972,0.618,0.750,0.364,0.573,0.094,0.311,0.043,0.440,0.854,0.879,0.861,0.677,0.109,0.546,0.374,0.616,0.501,0.958,0.521,0.321
0.031,0.043,0.011,0.733,0.132,0.073,0.189,0.286,0.492,0.979,0.106,0.609,0.527,0.723,0.730,0.104,0.789,0.597,0.880,0.133,0.106,0.227
0.556,0.745,0.959,0.747,0.981,0.825,0.607,0.873,0.323,0.720,0.402,0.649,0.416,0.789,0.609,0.055,0.745,0.020,0.337,0.226,0.970,0.448
0.949,0.709,0.928,0.987,0.448,0.573,0.592,0.166,0.192,0.226,0.776,0.850,0.303,0.006,0.743,0.295,0.298,0.819,0.234,0.515,0.029,0.311
0.625,0.891,0.051,0.607,0.232,0.309,0.866,0.165,0.552,0.573,0.604,0.369,0.737,0.083,0.507,0.771,0.444,0.394,0.794,0.746,0.581,0.041
0.155,0.788,0.297,0.606,0.076,0.279,0.140,0.508,0.290,0.634,0.376,0.623,0.927,0.052,0.185,0.492,0.987,0.728,0.581,0.891,0.387,0.110
0.520,0.567,0.271,0.603,0.509,0.500,0.314,0.839,0.139,0.543,0.500,0.921,0.824,0.891,0.261,0.197,0.989,0.557,0.503,0.266,0.381,0.731
0.507,0.701,0.381,0.856,0.089,0.752,0.258,0.279,0.641,0.224,0.120,0.522,0.587,0.022,0.985,0.969,0.553,0.628,0.052,0.975,0.333,0.748
0.162,0.039,0.248,0.129,0.561,0.113,0.035,0.608,0.541,0.203,0.689,0.438,0.120,0.012,0.698,0.257,0.248,0.983,0.570,0.523,0.485,0.576
0.312,0.354,0.925,0.709,0.489,0.388,0.777,0.629,0.690,0.820,0.342,0.454,0.929,0.858,0.094,0.819,0.838,0.413,0.048,0.126,0.572,0.872
0.535,0.729,0.418,0.572,0.975,0.664,0.666,0.982,0.551,0.113,0.577,0.264,0.109,0.985,0.220,0.269,0.782,0.476,0.268,0.758,0.030,0.523
0.119,0.818,0.183,0.757,0.126,0.220,0.431,0.820,0.314,0.461,0.881,0.762,0.753,0.294,0.799,0.241,0.030,0.547,0.271,0.567,0.398,0.736
0.935,0.648,0.013,0.037,0.757,0.971,0.656,0.541,0.331,0.005,0.389,0.357,0.346,0.481,0.923,0.513,0.211,0.779,0.779,0.553,0.432,0.617
0.202,0.941,0.244,0.516,0.949,0.464,0.581,0.067,0.880,0.563,0.254,0.053,0.433,0.749,0.222,0.301,0.809,0.067,0.258,0.723,0.353,0.344
0.511,0.115,0.066,0.732,0.055,0.483,0.636,0.015,0.851,0.670,0.447,0.045,0.412,0.289,0.956,0.930,0.691,0.900,0.663,0.256,0.131,0.339
0.051,0.992,0.850,0.899,0.158,0.517,0.800,0.920,0.303,0.541,0.362,0.771,0.954,0.575,0.252,0.237,0.208,0.963,0.900,0.563,0.307,0.333
0.673,0.793,0.777,0.709,0.758,0.914,0.500,0.737,0.183,0.398,0.706,0.565,0.605,0.740,0.972,0.267,0.634,0.181,0.677,0.540,0.160,0.744
0.464,0.895,0.953,0.861,0.671,0.273,0.349,0.858,0.359,0.645,0.542,0.833,0.073,0.075,0.471,0.945,0.421,0.584,0.703,0.418,0.030,0.738
0.666,0.206,0.605,0.853,0.266,0.836,0.368,0.809,0.247,0.368,0.790,0.896,0.621,0.630,0.151,0.097,0.867,0.471,0.503,0.365,0.354,0.866
0.326,0.934,0.813,0.235,0.039,0.764,0.623,0.208,0.550,0.984,0.232,0.439,0.929,0.823,0.523,0.234,0.881,0.010,0.449,0.459,0.578,0.130
0.943,0.187,0.583,0.108,0.879,0.133,0.739,0.497,0.942,0.888,0.970,0.973,0.478,0.164,0.211,0.052,0.506,0.484,0.803,0.542,0.405,0.842
0.487,0.954,0.287,1.000,0.573,0.762,0.985,0.742,0.374,0.758,0.251,0.717,0.913,0.511,0.791,0.582,0.482,0.027,0.327,0.516,0.236,0.172
0.377,0.806,0.451,0.237,0.939,0.400,0.356,0.580,0.747,0.471,0.111,0.902,0.923,0.694,0.662,0.912,0.837,0.273,0.605,0.025,0.648,0.389
0.590,0.779,0.737,0.744,0.137,0.270,0.910,0.486,0.765,0.681,0.868,0.221,0.652,0.315,0.584,0.146,0.127,0.536,0.159,0.062,0.028,0.285
0.642,0.777,0.643,0.652,0.460,0.177,0.831,0.099,0.877,0.060,0.740,0.496,0.529,0.525,0.829,0.230,0.060,0.718,0.779,0.788,0.667,0.719
0.257,0.787,0.354,0.339,0.819,0.038,0.779,0.115,0.343,0.038,0.263,0.528,0.965,0.189,0.528,0.344,0.188,0.025,0.014,0.882,0.531,0.991
0.331,0.711,0.110,0.345,0.228,0.826,0.592,0.725,0.351,0.285,0.305,0.715,0.422,0.830,0.188,0.289,0.360,0.318,0.544,0.619,0.150,0.431
0.800,0.828,0.235,0.444,0.952,0.623,0.526,0.402,0.226,0.257,0.023,0.368,0.261,0.626,0.801,0.700,0.290,0.416,0.789,0.225,0.226,0.883
0.188,0.801,0.975,0.869,0.632,0.712,0.131,0.407,0.932,0.676,0.290,0.087,0.573,0.448,0.923,0.483,0.775,0.009,0.349,0.377,0.916,0.993
0.485,0.389,0.549,0.137,0.736,0.417,0.148,0.943,0.039,0.702,0.524,0.310,0.533,0.715,0.968,0.836,0.708,0.243,0.436,0.757,0.152,0.480
0.489,0.018,0.548,0.323,0.713,0.840,0.462,0.021,0.620,0.556,0.507,0.624,0.044,0.339,0.338,0.998,0.166,0.972,0.568,0.308,0.682,0.508
0.500,0.822,0.062,0.077,0.761,0.848,0.882,0.453,0.511,0.978,0.614,0.135,0.204,0.818,0.896,0.030,0.344,0.360,0.861,0.437,0.002,0.410
0.615,0.673,0.586,0.108,0.667,0.817,0.222,0.992,0.948,0.805,0.150,0.335,0.116,0.126,0.987,0.830,0.727,0.583,0.823,0.627,0.286,0.472
0.395,0.543,0.201,0.512,0.048,0.474,0.981,0.111,0.231,0.751,0.888,0.430,0.531,0.813,0.882,0.779,0.358,0.742,0.126,0.265,0.741,0.914
0.150,0.387,0.400,0.036,0.508,0.233,0.119,0.338,0.586,0.177,0.290,0.092,0.961,0.956,0.911,0.645,0.928,0.080,0.119,0.686,0.030,0.046
0.449,0.285,0.335,0.603,0.538,0.974,0.749,0.695,0.858,0.962,0.711,0.856,0.270,0.566,0.471,0.836,0.460,0.179,0.339,0.453,0.399,0.451
0.960,0.872,0.726,0.352,0.651,0.052,0.249,0.633,0.482,0.465,0.552,0.263,0.277,0.739,0.214,0.649,0.965,0.346,0.838,0.130,0.606,0.455
0.716,0.873,0.579,0.720,0.961,0.453,0.610,0.340,0.723,0.460,0.162,0.179,0.239,0.652,0.774,0.811,0.132,0.489,0.555,0.478,0.259,0.603
0.318,0.581,0.464,0.677,0.336,0.143,0.111,0.298,0.659,0.614,0.744,0.410,0.398,0.228,0.642,0.012,0.983,0.886,0.929,0.459,0.718,0.151
0.114,0.943,0.540,0.076,0.560,0.837,0.541,0.254,0.311,0.334,0.061,0.363,0.880,0.473,0.129,0.951,0.286,0.094,0.853,0.276,0.282,0.394
0.914,0.764,0.990,0.980,0.837,0.395,0.956,0.893,0.744,0.239,0.858,0.824,0.394,0.117,0.110,0.682,0.146,0.945,0.960,0.985,0.375,0.519
0.914,0.119,0.884,0.759,0.445,0.681,0.819,0.303,0.429,0.295,0.229,0.251,0.088,0.436,0.996,0.576,0.693,0.822,0.369,0.688,0.348,0.978
0.669,0.821,0.170,0.828,0.952,0.952,0.556,0.319,0.641,0.007,0.224,0.869,0.325,0.265,0.228,0.667,0.174,0.912,0.128,0.796,0.172,0.953
0.365,0.330,0.341,0.053,0.471,0.484,0.596,0.919,0.201,0.802,0.877,0.453,0.680,0.462,0.812,0.932,0.586,0.022,0.990,0.109,0.193,0.400
0.761,0.226,0.263,0.713,0.709,0.065,0.222,0.887,0.266,0.475,0.344,0.085,0.614,0.159,0.789,0.641,0.488,0.876,0.356,0.474,0.789,0.734
0.711,0.918,0.912,0.404,0.617,0.047,0.317,0.242,0.710,0.779,0.512,0.038,0.060,0.295,0.290,0.017,0.283,0.310,0.368,0.005,0.397,0.941
0.870,0.947,0.066,0.866,0.705,0.726,0.682,0.477,0.100,0.589,0.029,0.063,0.325,0.991,0.822,0.553,0.593,0.523,0.935,0.853,0.069,0.017
0.662,0.917,0.034,0.829,0.129,0.479,0.336,0.425,0.118,0.969,0.597,0.528,0.854,0.577,0.434,0.020,0.333,0.167,0.861,0.150,0.651,0.277
0.633,0.125,0.637,0.938,0.201,0.144,0.567,0.867,0.757,0.693,0.528,0.077,0.670,0.875,0.953,0.249,0.130,0.447,0.404,0.930,0.126,0.647
0.668,0.773,0.550,0.182,0.042,0.938,0.051,0.256,0.104,0.183,0.973,0.545,0.162,0.052,0.958,0.370,0.904,0.693,0.885,0.412,0.426,0.926
0.271,0.508,0.595,0.408,0.454,0.662,0.869,0.456,0.899,0.726,0.414,0.107,0.770,0.178,0.442,0.488,0.921,0.590,0.924,0.702,0.798,0.785
0.905,0.822,0.252,0.615,0.884,0.878,0.700,0.773,0.560,0.903,0.123,0.638,0.611,0.985,0.378,0.652,0.956,0.630,0.324,0.911,0.125,0.232
0.059,0.720,0.802,0.600,0.975,0.466,0.538,0.730,0.643,0.227,0.552,0.425,0.464,0.104,0.412,0.557,0.400,0.725,0.720,0.308,0.433,0.080
0.311,0.487,0.249,0.469,0.418,0.284,0.027,0.704,0.140,0.614,0.925,0.384,0.884,0.335,0.189,0.780,0.427,0.006,0.122,0.476,0.730,0.077
0.454,0.998,0.468,0.087,0.171,0.635,0.885,0.357,0.603,0.627,0.675,0.016,0.562,0.765,0.154,0.846,0.207,0.778,0.030,0.075,0.025,0.578
0.714,0.933,0.744,0.212,0.244,0.425,0.591,0.924,0.664,0.951,0.146,0.592,0.404,0.365,0.689,0.879,0.780,0.833,0.608,0.881,0.528,0.622
0.822,0.644,0.143,0.867,0.818,0.382,0.364,0.310,0.531,0.021,0.416,0.789,0.652,0.122,0.993,0.761,0.578,0.326,0.491,0.144,0.686,0.520
0.805,0.917,0.923,0.301,0.590,0.327,0.334,0.757,0.260,0.602,0.172,0.506,0.713,0.634,0.573,0.632,0.843,0.027,0.140,0.088,0.924,0.186
0.338,0.676,0.463,0.140,0.987,0.127,0.178,0.263,0.244,0.341,0.573,0.524,0.027,0.278,0.246,0.525,0.488,0.342,0.836,0.857,0.651,0.385
0.643,0.086,0.329,0.160,0.828,0.850,0.340,0.341,0.349,0.633,0.906,0.542,0.497,0.598,0.753,0.604,0.838,0.486,0.832,0.139,0.146,0.128
0.396,0.910,0.549,0.905,0.275,0.481,0.087,0.120,0.055,0.048,0.886,0.285,0.438,0.354,0.831,0.738,0.153,0.554,0.305,0.716,0.949,0.852
0.868,0.483,0.499,0.138,0.961,0.913,0.060,0.910,0.411,0.560,0.128,0.491,0.365,0.781,0.422,0.301,0.920,0.655,0.948,0.573,0.175,0.714
0.510,0.509,0.917,0.229,0.449,0.403,0.335,0.831,0.248,0.581,0.918,0.844,0.813,0.423,0.155,0.500,0.589,0.024,0.222,0.521,0.917,0.528
0.952,0.335,0.719,0.330,0.152,0.483,0.733,0.688,0.671,0.981,0.904,0.119,0.177,0.593,0.331,0.060,0.618,0.854,0.962,0.874,0.171,0.791
0.361,0.739,0.516,0.144,0.678,0.045,0.894,0.908,0.229,0.602,0.336,0.161,0.444,0.417,0.268,0.408,0.713,0.835,0.978,0.204,0.339,0.877
0.248,0.541,0.178,0.078,0.042,0.325,0.462,0.641,0.147,0.986,0.583,0.696,0.612,0.890,0.866,0.606,0.883,0.815,0.061,0.872,0.966,0.335
0.605,0.670,0.370,0.591,0.186,0.839,0.431,0.520,0.433,0.161,0.872,0.166,0.593,0.468,0.392,0.228,0.414,0.101,0.679,0.386,0.116,0.238
0.760,0.395,0.365,0.549,0.480,0.203,0.495,0.059,0.947,0.942,0.027,0.257,0.046,0.138,0.668,0.055,0.057,0.266,0.128,0.932,0.900,0.117
0.359,0.925,0.825,0.973,0.946,0.685,0.294,0.610,0.171,0.334,0.081,0.088,0.231,0.624,0.794,0.937,0.466,0.800,0.499,0.756,0.971,0.809
0.854,0.815,0.173,0.284,0.845,0.084,0.109,0.300,0.207,0.010,0.991,0.752,0.767,0.204,0.012,0.288,0.864,0.823,0.273,0.268,0.627,0.548
0.552,0.760,0.434,0.306,0.392,0.057,0.074,0.610,0.401,0.062,0.809,0.899,0.446,0.442,0.019,0.247,0.357,0.478,0.735,0.380,0.577,0.275
0.551,0.997,0.850,0.419,0.932,0.730,0.575,0.326,0.747,0.519,0.708,0.426,0.389,0.827,0.167,0.116,0.412,0.092,0.469,0.282,0.208,0.420
0.855,0.740,0.315,0.654,0.928,0.802,0.253,0.869,0.470,0.623,0.143,0.167,0.987,0.390,0.808,0.245,0.337,0.020,0.919,0.133,0.247,0.373
0.594,0.842,0.180,0.572,0.854,0.276,0.652,0.988,0.654,0.762,0.567,0.368,0.469,0.777,0.435,0.563,0.819,0.261,0.604,0.434,0.004,0.006
0.978,0.563,0.234,0.725,0.328,0.453,0.223,0.011,0.354,0.898,0.507,0.931,0.356,0.532,0.648,0.525,0.135,0.266,0.916,0.662,0.340,0.706
0.589,0.349,0.265,0.469,0.142,0.407,0.599,0.667,0.130,0.386,0.990,0.435,0.108,0.119,0.601,0.051,0.121,0.376,0.589,0.222,0.628,0.737
0.302,0.546,0.267,0.748,0.003,0.088,0.117,0.869,0.709,0.006,0.968,0.826,0.418,0.461,0.912,0.483,0.397,0.567,0.956,0.325,0.991,0.651
0.665,0.008,0.874,0.672,0.203,0.526,0.023,0.917,0.569,0.710,0.345,0.640,0.312,0.350,0.986,0.786,0.197,0.812,0.899,0.213,0.448,0.033
0.528,0.432,0.831,0.208,0.642,0.441,0.408,0.752,0.461,0.624,0.609,0.900,0.546,0.447,0.462,0.812,0.066,0.482,0.406,0.180,0.849,0.453
0.510,0.934,0.777,0.404,0.005,0.041,0.329,0.069,0.079,0.866,0.801,0.672,0.174,0.438,0.327,0.841,0.817,0.658,0.698,0.350,0.086,0.177
0.037,0.977,0.391,0.143,0.315,0.417,0.556,0.855,0.438,0.615,0.614,0.538,0.266,0.823,0.368,0.428,0.335,0.501,0.890,0.029,0.547,0.554
0.920,0.527,0.686,0.955,0.795,0.943,0.834,0.077,0.756,0.445,0.013,0.822,0.138,0.744,0.467,0.164,0.810,0.970,0.455,0.339,0.871,0.884
0.170,0.014,0.863,0.553,0.360,0.300,0.286,0.698,0.890,0.666,0.305,0.729,0.732,0.565,0.572,0.817,0.477,0.255,0.611,0.795,0.645,0.921
0.016,0.025,0.676,0.845,0.826,0.415,0.708,0.388,0.599,0.149,0.781,0.520,0.901,0.172,0.197,0.150,0.770,0.182,0.588,0.806,0.550,0.731
0.025,0.077,0.503,0.470,0.156,0.062,0.701,0.239,0.376,0.079,0.308,0.450,0.341,0.943,0.084,0.272,0.621,0.418,0.670,0.301,0.854,0.186
0.180,0.652,0.222,0.126,0.078,0.489,0.802,0.493,0.002,0.430,0.410,0.326,0.122,0.944,0.207,0.042,0.027,0.805,0.552,0.151,0.581,0.969
0.124,0.244,0.731,0.432,0.861,0.065,0.527,0.772,0.010,0.939,0.327,0.608,0.156,0.750,0.239,0.327,0.138,0.012,0.402,0.142,0.887,0.070
0.555,0.708,0.484,0.934,0.631,0.111,0.434,0.545,0.220,0.514,0.229,0.428,0.957,0.007,0.137,0.109,0.881,0.055,0.778,0.364,0.373,0.494
0.325,0.328,0.541,0.310,0.138,0.249,0.324,0.671,0.734,0.434,0.186,0.346,0.541,0.357,0.933,0.740,0.365,0.362,0.401,0.359,0.849,0.004
0.864,0.999,0.883,0.560,0.146,0.250,0.044,0.382,0.394,0.473,0.204,0.142,0.351,0.157,0.721,0.010,0.374,0.509,0.153,0.545,0.776,0.756
0.047,0.594,0.474,0.374,0.793,0.543,0.753,0.085,0.616,0.731,0.850,0.010,0.827,0.589,0.326,0.363,0.046,0.418,0.920,0.966,0.503,0.088
0.831,0.394,0.640,0.844,0.817,0.113,0.901,0.008,0.226,0.189,0.446,0.924,0.608,0.074,0.895,0.489,0.675,0.898,0.176,0.394,0.341,0.399
0.428,0.617,0.923,0.367,0.372,0.415,0.392,0.679,0.820,0.704,0.674,0.404,0.531,0.642,0.320,0.065,0.392,0.545,0.337,0.799,0.505,0.939
0.938,0.027,0.988,0.105,0.866,0.611,0.679,0.102,0.514,0.340,0.738,0.824,0.194,0.795,0.883,0.862,0.996,0.547,0.465,0.474,0.633,0.596
0.106,0.239,0.646,0.026,0.825,0.437,0.056,0.617,0.495,0.542,0.605,0.552,0.549,0.678,0.743,0.051,0.811,0.608,0.006,0.389,0.554,0.207
0.653,0.201,0.010,0.363,0.260,0.810,0.726,0.518,0.104,0.539,0.243,0.956,0.680,0.101,0.744,0.867,0.754,0.963,0.495,0.111,0.147,0.975
0.669,0.469,0.928,0.581,0.381,0.697,0.672,0.911,0.995,0.754,0.246,0.778,0.998,0.574,0.435,0.319,0.394,0.151,0.369,0.397,0.542,0.866
0.301,0.840,0.005,0.127,0.177,0.248,0.774,0.336,0.754,0.708,0.759,0.646,0.824,0.812,0.777,0.850,0.421,0.654,0.653,0.066,0.001,0.839
0.161,0.916,0.996,0.027,0.367,0.716,0.904,0.450,0.281,0.613,0.638,0.492,0.706,0.600,0.696,0.187,0.469,0.053,0.140,0.545,0.056,0.539
0.114,0.625,0.188,0.503,0.386,0.591,0.942,0.436,0.272,0.636,0.369,0.484,0.626,0.460,0.317,0.916,0.104,0.694,0.036,0.929,0.941,0.702
0.343,0.215,0.641,0.328,0.008,0.396,0.130,0.461,0.925,0.357,0.744,0.438,0.830,0.206,0.606,0.081,0.474,0.504,0.396,0.596,0.483,0.058
0.134,0.365,0.788,0.806,0.775,0.557,0.041,0.863,0.883,0.054,0.590,0.983,0.279,0.069,0.237,0.084,0.257,0.385,0.083,0.181,0.763,0.388
0.101,0.719,0.568,0.566,0.759,0.991,0.045,0.264,0.000,0.316,0.102,0.197,0.703,0.492,0.101,0.334,0.160,0.811,0.653,0.646,0.415,0.217
0.583,0.950,0.148,0.957,0.648,0.170,0.646,0.072,0.061,0.184,0.329,0.723,0.502,0.301,0.974,0.634,0.540,0.797,0.200,0.719,0.822,0.166
0.203,0.287,0.192,0.243,0.230,0.419,0.323,0.120,0.436,0.420,0.594,0.745,0.104,0.018,0.987,0.336,1.000,0.191,0.765,0.673,0.711,0.307
0.530,0.623,0.735,0.928,0.013,0.940,0.528,0.607,0.988,0.267,0.185,0.898,0.531,0.601,0.425,0.355,0.148,0.324,0.445,0.649,0.875,0.186
0.653,0.289,0.904,0.043,0.298,0.580,0.161,0.035,0.277,0.156,0.675,0.780,0.081,0.963,0.451,0.770,0.986,0.219,0.775,0.831,0.615,0.894
0.893,0.458,0.646,0.943,0.434,0.600,0.925,0.593,0.910,0.829,0.886,0.085,0.972,0.646,0.892,0.717,0.068,0.290,0.926,0.948,0.985,0.003
0.977,0.672,0.047,0.160,0.592,0.828,0.882,0.948,0.062,0.827,0.721,0.625,0.579,0.833,0.299,0.203,0.453,0.707,0.161,0.914,0.254,0.811
0.121,0.115,0.998,0.331,0.841,0.640,0.051,0.711,0.651,0.458,0.749,0.738,0.656,0.239,0.881,0.237,0.999,0.278,0.497,0.206,0.004,0.171
0.798,0.367,0.626,0.245,0.860,0.698,0.664,0.997,0.126,0.435,0.341,0.743,0.866,0.151,0.505,0.218,0.862,0.716,0.134,0.128,0.839,0.983
0.429,0.706,0.609,0.465,0.041,0.159,0.506,0.574,0.854,0.656,0.888,0.490,0.416,0.513,0.302,0.718,0.392,0.380,0.829,0.900,0.262,0.351
0.603,0.989,0.313,0.742,0.914,0.565,0.644,0.933,0.249,0.564,0.243,0.877,0.607,0.180,0.672,0.140,0.954,0.050,0.361,0.335,0.013,0.742
0.190,0.742,0.904,0.298,0.404,0.813,0.731,0.239,0.611,0.302,0.128,0.944,0.909,0.621,0.027,0.318,0.158,0.050,0.146,0.335,0.520,0.319
0.166,0.817,0.829,0.458,0.683,0.532,0.237,0.923,0.840,0.349,0.287,0.614,0.039,0.647,0.914,0.173,0.705,0.532,0.442,0.383,0.450,0.028
0.527,0.523,0.820,0.452,0.276,0.644,0.699,0.933,0.938,0.195,0.249,0.420,0.242,0.424,0.203,0.913,0.148,0.287,0.702,0.303,0.270,0.362
0.071,0.146,0.606,0.411,0.287,0.929,0.970,0.854,0.525,0.398,0.015,0.773,0.033,0.158,0.636,0.880,0.332,0.824,0.580,0.541,0.232,0.317
0.290,0.365,0.741,0.647,0.900,0.594,0.093,0.060,0.289,0.397,0.326,0.104,0.669,0.394,0.107,0.887,0.565,0.433,0.475,0.894,0.212,0.108
0.213,0.577,0.989,0.619,0.280,0.530,0.076,0.720,0.088,0.007,0.009,0.691,0.365,0.201,0.547,0.018,0.453,0.781,0.763,0.592,0.014,0.179
0.622,0.444,0.306,0.455,0.022,0.866,0.255,0.971,0.617,0.204,0.432,0.509,0.535,0.846,0.847,0.341,0.581,0.430,0.912,0.961,0.404,0.310
0.805,0.588,0.729,0.514,0.039,0.494,0.331,0.990,0.399,0.518,0.659,0.865,0.625,0.307,0.643,0.559,0.334,0.265,0.523,0.552,0.131,0.697
0.477,0.125,0.080,0.311,0.890,0.192,0.405,0.902,0.885,0.949,0.238,0.539,0.399,0.684,0.443,0.438,0.586,0.458,0.344,0.170,0.736,0.047
0.075,0.987,0.446,0.174,0.300,0.110,0.702,0.014,0.947,0.411,0.047,0.381,0.484,0.852,0.453,0.891,0.556,0.967,0.981,0.365,0.150,0.822
0.136,0.109,0.325,0.387,0.502,0.017,0.501,0.693,0.476,0.216,0.153,0.895,0.023,0.822,0.574,0.883,0.593,0.471,0.570,0.567,0.515,0.595
0.108,0.944,0.234,0.774,0.283,0.558,0.912,0.240,0.342,0.033,0.022,0.138,0.554,0.376,0.667,0.015,0.935,0.895,0.570,0.330,0.585,0.407
0.148,0.501,0.589,0.280,0.237,0.019,0.565,0.845,0.852,0.401,0.536,0.123,0.661,0.456,0.825,0.236,0.721,0.358,0.900,0.038,0.633,0.216
0.082,0.136,0.313,0.531,0.105,0.781,0.855,0.505,0.838,0.883,0.776,0.157,0.592,0.376,0.338,0.945,0.427,0.144,0.030,0.695,0.611,0.893
0.327,0.431,0.266,0.202,0.356,0.232,0.095,0.090,0.459,0.423,0.500,0.190,0.678,0.265,0.344,0.336,0.984,0.644,0.612,0.435,0.366,0.755
0.791,0.461,0.508,0.740,0.864,0.573,0.740,0.409,0.385,0.839,0.614,0.581,0.035,0.997,0.772,0.286,0.150,0.736,0.335,0.644,0.644,0.263
0.614,0.168,0.230,0.003,0.209,0.940,0.703,0.380,0.592,0.624,0.973,0.487,0.016,0.500,0.241,0.442,0.896,0.376,0.128,0.227,0.526,0.379
0.531,0.734,0.209,0.203,0.550,0.218,0.763,0.129,0.451,0.246,0.926,0.625,0.023,0.564,0.631,0.576,0.830,0.459,0.983,0.811,0.183,0.157
0.848,0.602,0.398,0.713,0.598,0.972,0.064,0.615,0.870,0.531,0.663,0.786,0.685,0.073,0.543,0.712,0.414,0.548,0.689,0.253,0.068,0.018
0.841,0.304,0.340,0.968,0.244,0.400,0.550,0.966,0.476,0.242,0.976,0.447,0.045,0.710,0.317,0.942,0.822,0.464,0.993,0.881,0.345,0.160
0.460,0.891,0.728,0.653,0.701,0.710,0.126,0.374,0.222,0.487,0.829,0.002,0.140,0.268,0.087,0.997,0.450,0.086,0.911,0.080,0.123,0.518
0.649,0.476,0.087,0.112,0.560,0.399,0.696,0.461,0.802,0.927,0.747,0.859,0.234,0.562,0.217,0.802,0.713,0.390,0.495,0.839,0.142,0.945
0.320,0.368,0.225,0.536,0.349,0.960,0.501,0.508,0.921,0.415,0.042,0.881,0.580,0.051,0.483,0.772,0.462,0.957,0.242,0.349,0.309,0.557
0.337,0.086,0.050,0.622,0.862,0.391,0.923,0.133,0.728,0.351,0.496,0.999,0.131,0.024,0.012,0.232,0.291,0.689,0.984,0.441,0.880,0.304
0.385,0.881,0.820,0.546,0.280,0.724,0.981,0.990,0.293,0.730,0.540,0.481,0.877,0.817,0.713,0.724,0.384,0.599,0.174,0.682,0.858,0.183
0.702,0.548,0.903,0.967,0.447,0.303,0.247,0.932,0.517,0.853,0.312,0.377,0.143,0.496,0.049,0.654,0.368,0.513,0.011,0.080,0.694,0.015
0.153,0.943,0.397,0.018,0.621,0.906,0.428,0.742,0.469,0.052,0.545,0.171,0.299,0.701,0.906,0.696,0.110,0.253,0.944,0.001,0.307,0.601
0.019,0.859,0.704,0.772,0.785,0.876,0.164,0.209,0.454,0.434,0.374,0.055,0.497,0.624,0.710,0.598,0.185,0.600,0.668,0.490,0.391,0.135
0.350,0.295,0.180,0.321,0.442,0.686,0.961,0.735,0.115,0.082,0.037,0.759,0.367,0.572,0.867,0.789,0.555,0.935,0.205,0.050,0.376,0.838
0.733,0.168,0.414,0.503,0.855,0.572,0.795,0.103,0.674,0.658,0.112,0.126,0.181,0.135,0.759,0.810,0.037,0.200,0.891,0.290,0.865,0.340
0.944,0.830,0.717,0.400,0.000,0.642,0.729,0.129,0.225,0.340,0.610,0.704,0.875,0.885,0.512,0.978,0.019,0.249,0.342,0.459,0.536,0.799
0.344,0.669,0.080,0.513,0.201,0.228,0.061,0.778,0.601,0.016,0.060,0.125,0.923,0.980,0.173,0.594,0.867,0.612,0.963,0.809,0.190,0.453
0.453,0.908,0.535,0.770,0.701,0.794,0.996,0.393,0.234,0.716,0.272,0.717,0.814,0.542,0.100,0.540,0.856,0.377,0.674,0.782,0.260,0.477
0.670,0.057,0.702,0.546,0.281,0.505,0.537,0.972,0.236,0.286,0.718,0.204,0.982,0.396,0.317,0.151,0.730,0.787,0.550,0.318,0.165,0.657
0.455,0.918,0.912,0.268,0.928,0.657,0.006,0.209,0.007,0.180,0.985,0.001,0.658,0.551,0.652,0.240,0.099,0.650,0.543,0.826,0.108,0.043
0.376,0.181,0.231,0.326,0.636,0.263,0.555,0.548,0.410,0.151,0.477,0.436,0.178,0.363,0.426,0.159,0.202,0.881,0.827,0.678,0.087,0.700
0.469,0.963,0.240,0.242,0.310,0.326,0.676,0.279,0.693,0.637,0.539,0.485,0.534,0.111,0.807,0.611,0.869,0.698,0.479,0.443,0.545,0.810
0.613,0.237,0.640,0.839,0.951,0.523,0.643,0.401,0.625,0.565,0.981,0.935,0.106,0.478,0.682,0.118,0.114,0.957,0.621,0.669,0.902,0.684
0.550,0.495,0.385,0.751,0.746,0.616,0.563,0.108,0.818,0.485,0.597,0.621,0.711,0.491,0.383,0.110,0.204,0.659,0.335,0.419,0.365,0.703
0.387,0.564,0.436,0.293,0.335,0.900,0.380,0.394,0.898,0.729,0.892,0.229,0.929,0.077,0.735,0.668,0.981,0.260,0.838,0.484,0.275,0.233
0.354,0.667,0.511,0.442,0.750,0.781,0.700,0.867,0.708,0.858,0.522,0.504,0.955,0.892,0.091,0.648,0.043,0.563,0.495,0.931,0.139,0.228
0.029,0.424,0.025,0.185,0.241,0.084,0.085,0.094,0.409,0.373,0.031,0.574,0.222,0.855,0.084,0.801,0.718,0.315,0.271,0.097,0.205,0.067
0.088,0.497,0.537,0.340,0.925,0.182,0.441,0.688,0.072,0.261,0.140,0.345,0.383,0.627,0.022,0.394,0.106,0.837,0.005,0.330,0.043,0.184
0.847,0.499,0.710,0.696,0.701,0.873,0.893,0.193,0.544,0.132,0.296,0.459,0.850,0.907,0.296,0.673,0.016,0.192,0.918,0.060,0.752,0.803
0.093,0.279,0.975,0.722,0.518,0.222,0.003,0.706,0.140,0.161,0.600,0.901,0.000,0.850,0.257,0.192,0.879,0.175,0.504,0.148,0.857,0.975
0.877,0.676,0.143,0.323,0.874,0.910,0.769,0.569,0.234,0.227,0.091,0.540,0.164,0.821,0.800,0.991,0.164,0.925,0.608,0.788,0.773,0.113
0.897,0.330,0.675,0.496,0.534,0.293,0.838,0.755,0.391,0.853,0.254,0.403,0.533,0.104,0.284,0.190,0.058,0.937,0.437,0.876,0.089,0.526
0.894,0.152,0.802,0.611,0.801,0.361,0.650,0.134,0.034,0.782,0.164,0.001,0.741,0.238,0.360,0.815,0.156,0.596,0.896,0.765,0.286,0.914
0.864,0.509,0.192,0.307,0.742,0.704,0.947,0.658,0.592,0.196,0.414,0.157,0.897,0.759,0.044,0.091,0.822,0.803,0.296,0.760,0.965,0.436
0.284,0.876,0.002,0.624,0.066,0.981,0.153,0.660,0.950,0.030,0.921,0.327,0.508,0.681,0.076,0.478,0.542,0.732,0.445,0.545,0.743,0.103
0.912,0.005,0.498,0.613,0.454,0.815,0.796,0.240,0.201,0.035,0.105,0.485,0.523,0.379,0.754,0.426,0.085,0.745,0.474,0.629,0.380,0.656
0.672,0.865,0.885,0.442,0.113,0.094,0.226,0.712,0.052,0.113,0.664,0.324,0.892,0.233,0.475,0.864,0.924,0.329,0.295,0.350,0.423,0.155
0.288,0.120,0.789,0.509,0.471,0.859,0.747,0.181,0.299,0.978,0.029,0.826,0.173,0.793,0.120,0.308,0.171,0.561,0.930,0.505,0.264,0.302
0.264,0.728,0.317,0.290,0.530,0.223,0.236,0.344,0.594,0.209,0.036,0.003,0.217,0.954,0.179,0.143,0.746,0.735,0.567,0.909,0.602,0.854
0.642,0.606,0.403,0.169,0.941,0.554,0.422,0.094,0.060,0.583,0.281,0.084,0.694,0.504,0.503,0.403,0.142,0.826,0.257,0.684,0.211,0.449
0.393,0.897,0.972,0.701,0.238,0.055,0.011,0.425,0.669,0.234,0.890,0.173,0.840,0.601,0.519,0.779,0.989,0.139,0.938,0.894,0.860,0.893
0.133,0.675,0.213,0.317,0.020,0.943,0.111,0.645,0.265,0.156,0.547,0.635,0.394,0.120,0.583,0.441,0.762,0.063,0.079,0.843,0.906,0.933
0.191,0.625,0.251,0.070,0.476,0.091,0.659,0.007,0.566,0.264,0.656,0.627,0.971,0.982,0.986,0.980,0.474,0.902,0.277,0.672,0.640,0.832
0.699,0.530,0.420,0.112,0.490,0.628,0.527,0.787,0.641,0.162,0.172,0.200,0.839,0.765,0.132,0.398,0.792,0.375,0.698,0.161,0.325,0.937
0.655,0.867,0.533,0.932,0.073,0.314,0.698,0.186,0.904,0.506,0.157,0.898,0.620,0.927,0.682,0.818,0.614,0.236,0.217,0.453,0.143,0.144
0.653,0.756,0.314,0.001,0.901,0.648,0.554,0.921,0.516,0.795,0.868,0.881,0.028,0.329,0.557,0.515,0.860,0.903,0.089,0.548,0.866,0.629
0.082,0.169,0.947,0.139,0.085,0.008,0.250,0.859,0.635,0.861,0.237,0.960,0.233,0.178,0.401,0.937,0.245,0.193,0.206,0.396,0.776,0.295
0.341,0.318,0.825,0.401,0.725,0.921,0.245,0.012,0.593,0.448,0.276,0.712,0.911,0.591,0.030,0.744,0.026,0.662,0.768,0.761,0.466,0.140
0.924,0.774,0.781,0.666,0.966,0.827,0.202,0.058,0.720,0.563,0.878,0.477,0.449,0.337,0.283,0.518,0.591,0.775,0.669,0.381,0.089,0.749
0.963,0.559,0.630,0.590,0.293,0.207,0.458,0.629,0.913,0.952,0.513,0.427,0.636,0.530,0.866,0.979,0.016,0.274,0.696,0.366,0.842,0.723
0.545,0.466,0.198,0.285,0.677,0.583,0.266,0.264,0.628,0.413,0.058,0.395,0.241,0.670,0.878,0.624,0.704,0.789,0.759,0.150,0.467,0.755
0.218,0.922,0.677,0.661,0.975,0.265,0.049,0.866,0.765,0.627,0.442,0.376,0.025,0.543,0.878,0.865,0.400,0.848,0.946,0.900,0.083,0.873
0.985,0.266,0.291,0.057,0.788,0.347,0.799,0.060,0.402,0.113,0.364,0.417,0.824,0.502,0.413,0.025,0.931,0.289,0.716,0.743,0.866,0.163
0.415,0.340,0.078,0.218,0.326,0.534,0.500,0.594,0.306,0.918,0.817,0.534,0.652,0.923,0.553,0.090,0.924,0.563,0.807,0.772,0.516,0.224
0.801,0.476,0.930,0.622,0.269,0.670,0.132,0.930,0.488,0.713,0.071,0.374,0.846,0.919,0.101,0.950,0.124,0.871,0.655,0.763,0.027,0.306
0.233,0.219,0.819,0.299,0.406,0.526,0.838,0.899,0.676,0.504,0.527,0.227,0.343,0.837,0.120,0.897,0.160,0.452,0.870,0.290,0.204,0.713
0.838,0.033,0.149,0.152,0.200,0.766,0.331,0.230,0.406,0.550,0.815,0.882,0.275,0.076,0.077,0.778,0.522,0.733,0.531,0.849,0.102,0.291
0.721,0.324,0.556,0.087,0.548,0.032,0.205,0.637,0.031,0.043,0.202,0.838,0.058,0.163,0.678,0.401,0.154,0.836,0.952,0.019,0.387,0.115
0.483,0.141,0.436,0.629,0.553,0.096,0.581,0.326,0.907,0.347,0.164,0.759,0.450,0.775,0.112,0.995,0.626,0.210,0.937,0.214,0.999,0.389
0.085,0.314,0.869,0.047,0.538,0.154,0.061,0.438,0.321,0.713,0.265,0.875,0.101,0.664,0.010,0.943,0.884,0.576,0.870,0.705,0.418,0.976
0.407,0.984,0.875,0.556,0.754,0.478,0.579,0.242,0.281,0.493,0.067,0.583,0.720,0.326,0.860,0.252,0.595,0.456,0.900,0.845,0.417,0.421
0.552,0.791,0.384,0.488,0.300,0.709,0.067,0.314,0.649,0.621,0.408,0.641,0.814,0.601,0.610,0.642,0.418,0.183,0.617,0.896,0.947,0.335
0.002,0.693,0.669,0.967,0.892,0.649,0.813,0.085,0.210,0.520,0.771,0.469,0.202,0.907,0.461,0.826,0.092,0.385,0.499,0.067,0.483,0.260
0.616,0.311,0.014,0.812,0.882,0.189,0.170,0.387,0.103,0.253,0.848,0.827,0.598,0.015,0.478,0.036,0.321,0.399,0.826,0.187,0.834,0.857
0.169,0.203,0.601,0.316,0.795,0.414,0.448,0.679,0.842,0.103,0.158,0.306,0.347,0.597,0.335,0.680,0.728,0.689,0.326,0.552,0.939,0.330
0.251,0.436,0.232,0.593,0.993,0.469,0.386,0.935,0.224,0.316,0.044,0.033,0.860,0.255,0.477,0.389,0.609,0.082,0.298,0.556,0.054,0.141
0.827,0.164,0.166,0.971,0.691,0.030,0.442,0.805,0.889,0.898,0.597,0.116,0.432,0.025,0.519,0.209,0.068,0.892,0.068,0.255,0.673,0.029
0.390,0.045,0.196,0.609,0.793,0.782,0.548,0.066,0.311,0.598,0.880,0.373,0.384,0.095,0.761,0.813,0.115,0.398,0.563,0.916,0.533,0.609
0.652,0.359,0.922,0.001,0.943,0.590,0.927,0.164,0.092,0.679,0.390,0.029,0.935,0.760,0.004,0.348,0.407,0.531,0.687,0.168,0.405,0.881
0.246,0.967,0.613,0.095,0.990,0.033,0.157,0.655,0.887,0.948,0.219,0.082,0.926,0.019,0.825,0.932,0.578,0.210,0.762,0.173,0.613,0.909
0.287,0.073,0.826,0.355,0.249,0.107,0.583,0.801,0.104,0.794,0.277,0.976,0.371,0.452,0.150,0.809,0.296,0.522,0.521,0.650,0.016,0.817
0.296,0.157,0.696,0.420,0.234,0.938,0.635,0.203,0.849,0.988,0.703,0.310,0.447,0.131,0.734,0.546,0.267,0.594,0.429,0.979,0.173,0.758
0.775,0.085,0.159,0.786,0.960,0.482,0.610,0.217,0.536,0.225,0.532,0.639,0.066,0.004,0.340,0.813,0.789,0.135,0.475,0.533,0.283,0.862
0.403,0.767,0.133,0.739,0.856,0.853,0.269,0.230,0.788,0.394,0.754,0.587,0.074,0.192,0.793,0.873,0.855,0.091,0.630,0.194,0.731,0.472
0.469,0.936,0.073,0.234,0.534,0.462,0.690,0.756,0.812,0.049,0.173,0.761,0.887,0.905,0.550,0.072,0.692,0.497,0.251,0.169,0.210,0.465
0.643,0.083,0.536,0.852,0.130,0.042,0.268,0.871,0.433,0.838,0.493,0.607,0.520,0.928,0.138,0.615,0.301,0.298,0.660,0.252,0.808,0.445
0.219,0.924,0.871,0.948,0.687,0.177,0.190,0.390,0.575,0.461,0.832,0.881,0.666,0.219,0.253,0.389,0.572,0.799,0.788,0.705,0.902,0.022
0.422,0.768,0.346,0.905,0.206,0.396,0.294,0.704,0.978,0.442,0.382,0.831,0.176,0.495,0.954,0.238,0.906,0.764,0.968,0.785,0.471,0.312
0.574,0.657,0.288,0.278,0.795,0.533,0.593,0.258,0.367,0.207,0.979,0.855,0.825,0.697,0.819,0.289,0.708,0.496,0.923,0.666,0.741,0.454
0.627,0.202,0.001,0.096,0.008,0.769,0.594,0.501,0.727,0.801,0.728,0.497,0.013,0.316,0.061,0.039,0.225,0.884,0.424,0.933,0.813,0.966
0.979,0.279,0.482,0.180,0.136,0.949,0.574,0.685,0.294,0.866,0.492,0.702,0.233,0.916,0.555,0.557,0.749,0.866,0.744,0.980,0.230,0.075
0.666,0.030,0.623,0.283,0.186,0.802,0.142,0.830,0.675,0.330,0.079,0.272,0.618,0.028,0.012,0.252,0.306,0.611,0.020,0.705,0.324,0.162
0.251,0.594,0.140,0.022,0.991,0.007,0.856,0.970,0.846,0.606,0.983,0.424,0.494,0.317,0.999,0.359,0.586,0.290,0.077,0.653,0.789,0.147
0.048,0.082,0.608,0.414,0.498,0.457,0.082,0.515,0.286,0.412,0.250,0.574,0.986,0.962,0.645,0.940,0.463,0.203,0.859,0.833,0.325,0.198
0.348,0.750,0.977,0.783,0.126,0.357,0.100,0.356,0.019,0.565,0.250,0.902,0.920,0.607,0.959,0.492,0.970,0.282,0.101,0.722,0.472,0.213
0.946,0.426,0.484,0.239,0.121,0.414,0.082,0.544,0.575,0.089,0.448,0.215,0.462,0.777,1.000,0.871,0.508,0.049,0.873,0.705,0.988,0.019
0.445,0.851,0.540,0.057,0.834,0.871,0.072,0.831,0.984,0.273,0.009,0.067,0.693,0.407,0.714,0.664,0.733,0.496,0.508,0.619,0.812,0.194
0.298,0.349,0.353,0.957,0.259,0.516,0.125,0.293,0.780,0.270,0.157,0.323,0.960,0.822,0.922,0.517,0.300,0.694,0.876,0.851,0.311,0.630
0.648,0.436,0.863,0.013,0.150,0.336,0.233,0.111,0.280,0.883,0.523,0.891,0.085,0.618,0.260,0.022,0.474,0.175,0.804,0.752,0.958,0.488
0.029,0.546,0.875,0.201,0.180,0.602,0.206,0.542,0.770,0.764,0.689,0.327,0.845,0.453,0.021,0.391,0.598,0.099,0.924,0.067,0.011,0.689
0.277,0.940,0.889,0.661,0.669,0.873,0.481,0.509,0.424,0.400,0.673,0.991,0.377,0.142,0.648,0.733,0.372,0.298,0.285,0.076,0.222,0.287
0.722,0.705,0.996,0.916,0.997,0.883,0.310,0.564,0.044,0.686,0.888,0.641,0.909,0.842,0.831,0.681,0.221,0.788,0.704,0.354,0.367,0.460
0.760,0.184,0.138,0.180,0.138,0.103,0.398,0.150,0.233,0.331,0.573,0.749,0.848,0.025,0.694,0.226,0.364,0.144,0.709,0.621,0.334,0.952
0.681,0.341,0.875,0.945,0.196,0.469,0.676,0.615,0.720,0.589,0.484,0.189,0.992,0.819,0.229,0.439,0.691,0.872,0.190,0.268,0.914,0.213
0.537,0.883,0.869,0.950,0.974,0.366,0.531,0.901,0.090,0.863,0.136,0.020,0.733,0.448,0.343,0.195,0.863,0.440,0.636,0.580,0.649,0.538
0.469,0.903,0.019,0.925,0.409,0.084,0.686,0.640,0.802,0.645,0.278,0.382,0.708,0.157,0.899,0.956,0.261,0.166,0.361,0.528,0.588,0.609
0.643,0.253,0.464,0.503,0.825,0.330,0.040,0.161,0.162,0.837,0.208,0.514,0.479,0.328,0.666,0.503,0.789,0.068,0.294,0.970,0.249,0.107
